[General]
width=112
height=112
colors=256color
creator=Tsoding

[Palette]
c0=000000
c1=0000aa
c2=00aa00
c3=00aaaa
c4=aa0000
c5=aa00aa
c6=aa5500
c7=aaaaaa
c8=555555
c9=5555ff
c10=55ff55
c11=55ffff
c12=ff5555
c13=ff55ff
c14=ffff55
c15=ffffff
c16=000000
c17=00005f
c18=000087
c19=0000af
c20=0000d7
c21=0000ff
c22=005f00
c23=005f5f
c24=005f87
c25=005faf
c26=005fd7
c27=005fff
c28=008700
c29=00875f
c30=008787
c31=0087af
c32=0087d7
c33=0087ff
c34=00af00
c35=00af5f
c36=00af87
c37=00afaf
c38=00afd7
c39=00afff
c40=00d700
c41=00d75f
c42=00d787
c43=00d7af
c44=00d7d7
c45=00d7ff
c46=00ff00
c47=00ff5f
c48=00ff87
c49=00ffaf
c50=00ffd7
c51=00ffff
c52=5f0000
c53=5f005f
c54=5f0087
c55=5f00af
c56=5f00d7
c57=5f00ff
c58=5f5f00
c59=5f5f5f
c60=5f5f87
c61=5f5faf
c62=5f5fd7
c63=5f5fff
c64=5f8700
c65=5f875f
c66=5f8787
c67=5f87af
c68=5f87d7
c69=5f87ff
c70=5faf00
c71=5faf5f
c72=5faf87
c73=5fafaf
c74=5fafd7
c75=5fafff
c76=5fd700
c77=5fd75f
c78=5fd787
c79=5fd7af
c80=5fd7d7
c81=5fd7ff
c82=5fff00
c83=5fff5f
c84=5fff87
c85=5fffaf
c86=5fffd7
c87=5fffff
c88=870000
c89=87005f
c90=870087
c91=8700af
c92=8700d7
c93=8700ff
c94=875f00
c95=875f5f
c96=875f87
c97=875faf
c98=875fd7
c99=875fff
c100=878700
c101=87875f
c102=878787
c103=8787af
c104=8787d7
c105=8787ff
c106=87af00
c107=87af5f
c108=87af87
c109=87afaf
c110=87afd7
c111=87afff
c112=87d700
c113=87d75f
c114=87d787
c115=87d7af
c116=87d7d7
c117=87d7ff
c118=87ff00
c119=87ff5f
c120=87ff87
c121=87ffaf
c122=87ffd7
c123=87ffff
c124=af0000
c125=af005f
c126=af0087
c127=af00af
c128=af00d7
c129=af00ff
c130=af5f00
c131=af5f5f
c132=af5f87
c133=af5faf
c134=af5fd7
c135=af5fff
c136=af8700
c137=af875f
c138=af8787
c139=af87af
c140=af87d7
c141=af87ff
c142=afaf00
c143=afaf5f
c144=afaf87
c145=afafaf
c146=afafd7
c147=afafff
c148=afd700
c149=afd75f
c150=afd787
c151=afd7af
c152=afd7d7
c153=afd7ff
c154=afff00
c155=afff5f
c156=afff87
c157=afffaf
c158=afffd7
c159=afffff
c160=d70000
c161=d7005f
c162=d70087
c163=d700af
c164=d700d7
c165=d700ff
c166=d75f00
c167=d75f5f
c168=d75f87
c169=d75faf
c170=d75fd7
c171=d75fff
c172=d78700
c173=d7875f
c174=d78787
c175=d787af
c176=d787d7
c177=d787ff
c178=d7af00
c179=d7af5f
c180=d7af87
c181=d7afaf
c182=d7afd7
c183=d7afff
c184=d7d700
c185=d7d75f
c186=d7d787
c187=d7d7af
c188=d7d7d7
c189=d7d7ff
c190=d7ff00
c191=d7ff5f
c192=d7ff87
c193=d7ffaf
c194=d7ffd7
c195=d7ffff
c196=ff0000
c197=ff005f
c198=ff0087
c199=ff00af
c200=ff00d7
c201=ff00ff
c202=ff5f00
c203=ff5f5f
c204=ff5f87
c205=ff5faf
c206=ff5fd7
c207=ff5fff
c208=ff8700
c209=ff875f
c210=ff8787
c211=ff87af
c212=ff87d7
c213=ff87ff
c214=ffaf00
c215=ffaf5f
c216=ffaf87
c217=ffafaf
c218=ffafd7
c219=ffafff
c220=ffd700
c221=ffd75f
c222=ffd787
c223=ffd7af
c224=ffd7d7
c225=ffd7ff
c226=ffff00
c227=ffff5f
c228=ffff87
c229=ffffaf
c230=ffffd7
c231=ffffff
c232=080808
c233=121212
c234=1c1c1c
c235=262626
c236=303030
c237=3a3a3a
c238=444444
c239=4e4e4e
c240=585858
c241=626262
c242=6c6c6c
c243=767676
c244=808080
c245=8a8a8a
c246=949494
c247=9e9e9e
c248=a8a8a8
c249=b2b2b2
c250=bcbcbc
c251=c6c6c6
c252=d0d0d0
c253=dadada
c254=e4e4e4
c255=eeeeee

[Picture]
x1y1=3b
x2y1=3b
x3y1=3b
x4y1=3c
x5y1=f0
x6y1=3b
x7y1=3b
x8y1=3c
x9y1=08
x10y1=e8
x11y1=00
x12y1=b5
x13y1=e6
x14y1=e0
x15y1=e0
x16y1=e6
x17y1=e0
x18y1=e6
x19y1=e6
x20y1=e0
x21y1=e6
x22y1=ff
x23y1=e6
x24y1=e0
x25y1=e6
x26y1=e0
x27y1=e6
x28y1=e0
x29y1=e0
x30y1=e0
x31y1=e0
x32y1=e0
x33y1=e6
x34y1=e0
x35y1=e0
x36y1=e6
x37y1=e0
x38y1=e0
x39y1=e6
x40y1=e0
x41y1=e0
x42y1=e6
x43y1=e0
x44y1=e0
x45y1=e6
x46y1=e0
x47y1=e0
x48y1=e6
x49y1=e0
x50y1=e0
x51y1=e6
x52y1=e0
x53y1=e0
x54y1=e6
x55y1=e0
x56y1=e0
x57y1=e6
x58y1=e0
x59y1=e0
x60y1=e6
x61y1=e0
x62y1=e0
x63y1=e6
x64y1=e0
x65y1=e0
x66y1=e6
x67y1=e0
x68y1=e0
x69y1=e6
x70y1=e0
x71y1=e0
x72y1=e6
x73y1=e0
x74y1=e0
x75y1=e6
x76y1=e0
x77y1=e0
x78y1=e6
x79y1=e0
x80y1=e0
x81y1=e6
x82y1=e0
x83y1=e0
x84y1=e6
x85y1=e0
x86y1=e0
x87y1=e6
x88y1=e0
x89y1=e0
x90y1=e6
x91y1=e0
x92y1=e0
x93y1=e6
x94y1=e0
x95y1=e0
x96y1=e6
x97y1=e0
x98y1=e0
x99y1=e6
x100y1=e0
x101y1=e0
x102y1=e6
x103y1=e0
x104y1=e0
x105y1=e6
x106y1=e0
x107y1=e0
x108y1=e6
x109y1=e0
x110y1=e0
x111y1=e6
x112y1=e0
x1y2=3b
x2y2=3c
x3y2=f0
x4y2=f0
x5y2=3c
x6y2=f0
x7y2=3c
x8y2=f0
x9y2=ef
x10y2=00
x11y2=eb
x12y2=e6
x13y2=ff
x14y2=e6
x15y2=e0
x16y2=e0
x17y2=bb
x18y2=b5
x19y2=fb
x20y2=b5
x21y2=b5
x22y2=b5
x23y2=b5
x24y2=bb
x25y2=e0
x26y2=fd
x27y2=e0
x28y2=e6
x29y2=e6
x30y2=e6
x31y2=e6
x32y2=e6
x33y2=e0
x34y2=e6
x35y2=e0
x36y2=e0
x37y2=e6
x38y2=e0
x39y2=e0
x40y2=e6
x41y2=e0
x42y2=e0
x43y2=e6
x44y2=e0
x45y2=e0
x46y2=e6
x47y2=e0
x48y2=e0
x49y2=e6
x50y2=e0
x51y2=e0
x52y2=e6
x53y2=e0
x54y2=e0
x55y2=e6
x56y2=e0
x57y2=e0
x58y2=e6
x59y2=e0
x60y2=e0
x61y2=e6
x62y2=e0
x63y2=e0
x64y2=e6
x65y2=e0
x66y2=e0
x67y2=e6
x68y2=e0
x69y2=e0
x70y2=e6
x71y2=e0
x72y2=e0
x73y2=e6
x74y2=e0
x75y2=e0
x76y2=e6
x77y2=e0
x78y2=e0
x79y2=e6
x80y2=e0
x81y2=e0
x82y2=e6
x83y2=e0
x84y2=e0
x85y2=e6
x86y2=e0
x87y2=e0
x88y2=e6
x89y2=e0
x90y2=e0
x91y2=e6
x92y2=e0
x93y2=e0
x94y2=e6
x95y2=e0
x96y2=e0
x97y2=e6
x98y2=e0
x99y2=e0
x100y2=e6
x101y2=e0
x102y2=e0
x103y2=e6
x104y2=e0
x105y2=e0
x106y2=e6
x107y2=e0
x108y2=e0
x109y2=e6
x110y2=e0
x111y2=e0
x112y2=e6
x1y3=3b
x2y3=3c
x3y3=f0
x4y3=3c
x5y3=08
x6y3=3c
x7y3=08
x8y3=3c
x9y3=ed
x10y3=e8
x11y3=ec
x12y3=8a
x13y3=f2
x14y3=ef
x15y3=ec
x16y3=ea
x17y3=e8
x18y3=e8
x19y3=00
x20y3=00
x21y3=00
x22y3=00
x23y3=00
x24y3=00
x25y3=e8
x26y3=e9
x27y3=eb
x28y3=ed
x29y3=f0
x30y3=f3
x31y3=8a
x32y3=f9
x33y3=df
x34y3=e0
x35y3=e6
x36y3=e6
x37y3=e0
x38y3=e6
x39y3=e0
x40y3=e0
x41y3=e6
x42y3=e0
x43y3=e0
x44y3=e6
x45y3=e0
x46y3=e0
x47y3=e6
x48y3=e0
x49y3=e0
x50y3=e6
x51y3=e0
x52y3=e0
x53y3=e6
x54y3=e0
x55y3=e0
x56y3=e6
x57y3=e0
x58y3=e0
x59y3=e6
x60y3=e0
x61y3=e0
x62y3=e6
x63y3=e0
x64y3=e0
x65y3=e6
x66y3=e0
x67y3=e0
x68y3=e6
x69y3=e0
x70y3=e0
x71y3=e6
x72y3=e0
x73y3=e0
x74y3=e6
x75y3=e0
x76y3=e0
x77y3=e6
x78y3=e0
x79y3=e0
x80y3=e6
x81y3=e0
x82y3=e0
x83y3=e6
x84y3=e0
x85y3=e0
x86y3=e6
x87y3=e0
x88y3=e0
x89y3=e6
x90y3=e0
x91y3=e0
x92y3=e6
x93y3=e0
x94y3=e0
x95y3=e6
x96y3=e0
x97y3=e0
x98y3=e6
x99y3=e0
x100y3=e0
x101y3=e6
x102y3=e0
x103y3=e0
x104y3=e6
x105y3=e0
x106y3=e0
x107y3=e6
x108y3=e0
x109y3=e0
x110y3=e6
x111y3=e0
x112y3=e0
x1y4=f0
x2y4=3c
x3y4=08
x4y4=3c
x5y4=08
x6y4=3c
x7y4=17
x8y4=ef
x9y4=ea
x10y4=00
x11y4=00
x12y4=00
x13y4=00
x14y4=00
x15y4=00
x16y4=00
x17y4=e8
x18y4=e8
x19y4=ea
x20y4=ea
x21y4=ea
x22y4=ea
x23y4=e9
x24y4=e9
x25y4=e8
x26y4=00
x27y4=00
x28y4=00
x29y4=00
x30y4=00
x31y4=00
x32y4=00
x33y4=e8
x34y4=ec
x35y4=08
x36y4=f5
x37y4=b5
x38y4=e0
x39y4=e6
x40y4=e6
x41y4=e0
x42y4=e6
x43y4=e0
x44y4=e0
x45y4=e6
x46y4=e0
x47y4=e6
x48y4=e0
x49y4=e6
x50y4=e0
x51y4=e6
x52y4=e0
x53y4=e0
x54y4=e6
x55y4=e0
x56y4=e6
x57y4=e0
x58y4=e6
x59y4=e0
x60y4=e6
x61y4=e0
x62y4=e0
x63y4=e6
x64y4=e0
x65y4=e6
x66y4=e0
x67y4=e6
x68y4=e0
x69y4=e6
x70y4=e0
x71y4=e0
x72y4=e6
x73y4=e0
x74y4=e6
x75y4=e0
x76y4=e6
x77y4=e0
x78y4=e6
x79y4=e0
x80y4=e0
x81y4=e6
x82y4=e0
x83y4=e6
x84y4=e0
x85y4=e6
x86y4=e0
x87y4=e6
x88y4=e0
x89y4=e0
x90y4=e6
x91y4=e0
x92y4=e6
x93y4=e0
x94y4=e6
x95y4=e0
x96y4=e6
x97y4=e0
x98y4=e0
x99y4=e6
x100y4=e0
x101y4=e6
x102y4=e0
x103y4=e6
x104y4=e0
x105y4=e6
x106y4=e0
x107y4=e0
x108y4=e6
x109y4=e0
x110y4=e6
x111y4=e0
x112y4=e6
x1y5=3b
x2y5=f0
x3y5=3c
x4y5=17
x5y5=3c
x6y5=ec
x7y5=e9
x8y5=00
x9y5=00
x10y5=00
x11y5=e9
x12y5=ed
x13y5=f2
x14y5=f5
x15y5=f9
x16y5=fb
x17y5=fd
x18y5=ff
x19y5=ff
x20y5=0f
x21y5=ff
x22y5=0f
x23y5=ff
x24y5=ff
x25y5=fd
x26y5=fc
x27y5=fa
x28y5=f8
x29y5=66
x30y5=f1
x31y5=ee
x32y5=ea
x33y5=e8
x34y5=00
x35y5=00
x36y5=00
x37y5=00
x38y5=eb
x39y5=f1
x40y5=07
x41y5=e0
x42y5=e6
x43y5=e6
x44y5=e0
x45y5=e0
x46y5=e6
x47y5=e0
x48y5=e0
x49y5=e0
x50y5=e6
x51y5=e0
x52y5=e6
x53y5=e0
x54y5=e0
x55y5=e6
x56y5=e0
x57y5=e0
x58y5=e0
x59y5=e6
x60y5=e0
x61y5=e6
x62y5=e0
x63y5=e0
x64y5=e6
x65y5=e0
x66y5=e0
x67y5=e0
x68y5=e6
x69y5=e0
x70y5=e6
x71y5=e0
x72y5=e0
x73y5=e6
x74y5=e0
x75y5=e0
x76y5=e0
x77y5=e6
x78y5=e0
x79y5=e6
x80y5=e0
x81y5=e0
x82y5=e6
x83y5=e0
x84y5=e0
x85y5=e0
x86y5=e6
x87y5=e0
x88y5=e6
x89y5=e0
x90y5=e0
x91y5=e6
x92y5=e0
x93y5=e0
x94y5=e0
x95y5=e6
x96y5=e0
x97y5=e6
x98y5=e0
x99y5=e0
x100y5=e6
x101y5=e0
x102y5=e0
x103y5=e0
x104y5=e6
x105y5=e0
x106y5=e6
x107y5=e0
x108y5=e0
x109y5=e6
x110y5=e0
x111y5=e0
x112y5=e0
x1y6=3c
x2y6=08
x3y6=f0
x4y6=3c
x5y6=ec
x6y6=00
x7y6=00
x8y6=ea
x9y6=f2
x10y6=f9
x11y6=fe
x12y6=0f
x13y6=0f
x14y6=0f
x15y6=0f
x16y6=0f
x17y6=0f
x18y6=0f
x19y6=0f
x20y6=0f
x21y6=0f
x22y6=0f
x23y6=0f
x24y6=0f
x25y6=0f
x26y6=0f
x27y6=0f
x28y6=0f
x29y6=0f
x30y6=0f
x31y6=0f
x32y6=0f
x33y6=bc
x34y6=f9
x35y6=f4
x36y6=ee
x37y6=e9
x38y6=00
x39y6=00
x40y6=00
x41y6=eb
x42y6=f3
x43y6=bb
x44y6=ff
x45y6=e6
x46y6=e0
x47y6=e0
x48y6=e6
x49y6=e0
x50y6=e0
x51y6=e0
x52y6=e0
x53y6=e6
x54y6=e0
x55y6=e0
x56y6=e6
x57y6=e0
x58y6=e6
x59y6=e0
x60y6=e0
x61y6=e0
x62y6=e6
x63y6=e0
x64y6=e0
x65y6=e6
x66y6=e0
x67y6=e6
x68y6=e0
x69y6=e0
x70y6=e0
x71y6=e6
x72y6=e0
x73y6=e0
x74y6=e6
x75y6=e0
x76y6=e6
x77y6=e0
x78y6=e0
x79y6=e0
x80y6=e6
x81y6=e0
x82y6=e0
x83y6=e6
x84y6=e0
x85y6=e6
x86y6=e0
x87y6=e0
x88y6=e0
x89y6=e6
x90y6=e0
x91y6=e0
x92y6=e6
x93y6=e0
x94y6=e6
x95y6=e0
x96y6=e0
x97y6=e0
x98y6=e6
x99y6=e0
x100y6=e0
x101y6=e6
x102y6=e0
x103y6=e6
x104y6=e0
x105y6=e0
x106y6=e0
x107y6=e6
x108y6=e0
x109y6=e0
x110y6=e6
x111y6=e0
x112y6=e6
x1y7=f0
x2y7=3c
x3y7=f0
x4y7=ef
x5y7=e8
x6y7=00
x7y7=f3
x8y7=ff
x9y7=0f
x10y7=0f
x11y7=0f
x12y7=0f
x13y7=0f
x14y7=0f
x15y7=0f
x16y7=0f
x17y7=0f
x18y7=0f
x19y7=0f
x20y7=0f
x21y7=0f
x22y7=0f
x23y7=0f
x24y7=0f
x25y7=0f
x26y7=0f
x27y7=0f
x28y7=0f
x29y7=0f
x30y7=0f
x31y7=0f
x32y7=0f
x33y7=0f
x34y7=0f
x35y7=0f
x36y7=0f
x37y7=fe
x38y7=91
x39y7=f1
x40y7=ea
x41y7=00
x42y7=00
x43y7=e9
x44y7=f1
x45y7=bb
x46y7=ff
x47y7=e0
x48y7=e6
x49y7=e0
x50y7=e6
x51y7=e0
x52y7=e6
x53y7=e0
x54y7=e6
x55y7=e0
x56y7=e0
x57y7=e6
x58y7=e0
x59y7=e6
x60y7=e0
x61y7=e6
x62y7=e0
x63y7=e6
x64y7=e0
x65y7=e0
x66y7=e6
x67y7=e0
x68y7=e6
x69y7=e0
x70y7=e6
x71y7=e0
x72y7=e6
x73y7=e0
x74y7=e0
x75y7=e6
x76y7=e0
x77y7=e6
x78y7=e0
x79y7=e6
x80y7=e0
x81y7=e6
x82y7=e0
x83y7=e0
x84y7=e6
x85y7=e0
x86y7=e6
x87y7=e0
x88y7=e6
x89y7=e0
x90y7=e6
x91y7=e0
x92y7=e0
x93y7=e6
x94y7=e0
x95y7=e6
x96y7=e0
x97y7=e6
x98y7=e0
x99y7=e6
x100y7=e0
x101y7=e0
x102y7=e6
x103y7=e0
x104y7=e6
x105y7=e0
x106y7=e6
x107y7=e0
x108y7=e6
x109y7=e0
x110y7=e0
x111y7=e6
x112y7=e0
x1y8=3b
x2y8=f0
x3y8=3c
x4y8=ea
x5y8=e8
x6y8=ed
x7y8=0f
x8y8=0f
x9y8=0f
x10y8=0f
x11y8=0f
x12y8=0f
x13y8=0f
x14y8=0f
x15y8=0f
x16y8=0f
x17y8=0f
x18y8=0f
x19y8=0f
x20y8=0f
x21y8=0f
x22y8=0f
x23y8=0f
x24y8=0f
x25y8=0f
x26y8=0f
x27y8=0f
x28y8=0f
x29y8=0f
x30y8=0f
x31y8=0f
x32y8=0f
x33y8=0f
x34y8=0f
x35y8=0f
x36y8=0f
x37y8=0f
x38y8=0f
x39y8=0f
x40y8=ff
x41y8=f7
x42y8=ee
x43y8=00
x44y8=00
x45y8=e9
x46y8=f4
x47y8=e6
x48y8=e0
x49y8=e0
x50y8=e6
x51y8=e0
x52y8=e0
x53y8=e6
x54y8=e0
x55y8=e6
x56y8=e0
x57y8=e0
x58y8=e6
x59y8=e0
x60y8=e0
x61y8=e0
x62y8=e6
x63y8=e0
x64y8=e6
x65y8=e0
x66y8=e0
x67y8=e6
x68y8=e0
x69y8=e0
x70y8=e0
x71y8=e6
x72y8=e0
x73y8=e6
x74y8=e0
x75y8=e0
x76y8=e6
x77y8=e0
x78y8=e0
x79y8=e0
x80y8=e6
x81y8=e0
x82y8=e6
x83y8=e0
x84y8=e0
x85y8=e6
x86y8=e0
x87y8=e0
x88y8=e0
x89y8=e6
x90y8=e0
x91y8=e6
x92y8=e0
x93y8=e0
x94y8=e6
x95y8=e0
x96y8=e0
x97y8=e0
x98y8=e6
x99y8=e0
x100y8=e6
x101y8=e0
x102y8=e0
x103y8=e6
x104y8=e0
x105y8=e0
x106y8=e0
x107y8=e6
x108y8=e0
x109y8=e6
x110y8=e0
x111y8=e0
x112y8=e6
x1y9=3c
x2y9=f0
x3y9=17
x4y9=e8
x5y9=00
x6y9=fa
x7y9=0f
x8y9=0f
x9y9=0f
x10y9=0f
x11y9=0f
x12y9=0f
x13y9=0f
x14y9=0f
x15y9=0f
x16y9=0f
x17y9=0f
x18y9=0f
x19y9=0f
x20y9=0f
x21y9=0f
x22y9=0f
x23y9=0f
x24y9=0f
x25y9=0f
x26y9=0f
x27y9=0f
x28y9=0f
x29y9=0f
x30y9=0f
x31y9=0f
x32y9=0f
x33y9=0f
x34y9=0f
x35y9=0f
x36y9=0f
x37y9=0f
x38y9=0f
x39y9=0f
x40y9=0f
x41y9=0f
x42y9=0f
x43y9=f9
x44y9=ed
x45y9=00
x46y9=00
x47y9=ed
x48y9=e0
x49y9=e6
x50y9=e0
x51y9=e6
x52y9=e0
x53y9=e0
x54y9=e0
x55y9=e0
x56y9=e6
x57y9=e0
x58y9=e0
x59y9=e6
x60y9=e0
x61y9=e6
x62y9=e0
x63y9=e0
x64y9=e0
x65y9=e6
x66y9=e0
x67y9=e0
x68y9=e6
x69y9=e0
x70y9=e6
x71y9=e0
x72y9=e0
x73y9=e0
x74y9=e6
x75y9=e0
x76y9=e0
x77y9=e6
x78y9=e0
x79y9=e6
x80y9=e0
x81y9=e0
x82y9=e0
x83y9=e6
x84y9=e0
x85y9=e0
x86y9=e6
x87y9=e0
x88y9=e6
x89y9=e0
x90y9=e0
x91y9=e0
x92y9=e6
x93y9=e0
x94y9=e0
x95y9=e6
x96y9=e0
x97y9=e6
x98y9=e0
x99y9=e0
x100y9=e0
x101y9=e6
x102y9=e0
x103y9=e0
x104y9=e6
x105y9=e0
x106y9=e6
x107y9=e0
x108y9=e0
x109y9=e0
x110y9=e6
x111y9=e0
x112y9=e0
x1y10=f0
x2y10=3c
x3y10=eb
x4y10=00
x5y10=ed
x6y10=0f
x7y10=0f
x8y10=0f
x9y10=0f
x10y10=0f
x11y10=0f
x12y10=0f
x13y10=0f
x14y10=0f
x15y10=0f
x16y10=0f
x17y10=0f
x18y10=0f
x19y10=0f
x20y10=0f
x21y10=0f
x22y10=0f
x23y10=0f
x24y10=0f
x25y10=0f
x26y10=0f
x27y10=0f
x28y10=0f
x29y10=0f
x30y10=0f
x31y10=0f
x32y10=0f
x33y10=0f
x34y10=0f
x35y10=0f
x36y10=0f
x37y10=0f
x38y10=0f
x39y10=0f
x40y10=0f
x41y10=0f
x42y10=0f
x43y10=0f
x44y10=0f
x45y10=f6
x46y10=e9
x47y10=00
x48y10=f5
x49y10=e6
x50y10=e0
x51y10=e0
x52y10=e6
x53y10=e0
x54y10=e6
x55y10=e0
x56y10=e6
x57y10=e0
x58y10=e6
x59y10=e0
x60y10=e6
x61y10=e0
x62y10=e0
x63y10=e6
x64y10=e0
x65y10=e0
x66y10=e6
x67y10=e0
x68y10=e6
x69y10=e0
x70y10=e0
x71y10=e6
x72y10=e0
x73y10=e6
x74y10=e0
x75y10=e6
x76y10=e0
x77y10=e0
x78y10=e6
x79y10=e0
x80y10=e0
x81y10=e6
x82y10=e0
x83y10=e0
x84y10=e6
x85y10=e0
x86y10=e6
x87y10=e0
x88y10=e0
x89y10=e6
x90y10=e0
x91y10=e6
x92y10=e0
x93y10=e6
x94y10=e0
x95y10=e0
x96y10=e6
x97y10=e0
x98y10=e0
x99y10=e6
x100y10=e0
x101y10=e0
x102y10=e6
x103y10=e0
x104y10=e6
x105y10=e0
x106y10=e0
x107y10=e6
x108y10=e0
x109y10=e6
x110y10=e0
x111y10=e6
x112y10=e0
x1y11=3b
x2y11=f0
x3y11=e9
x4y11=00
x5y11=f8
x6y11=0f
x7y11=0f
x8y11=0f
x9y11=0f
x10y11=0f
x11y11=0f
x12y11=0f
x13y11=0f
x14y11=0f
x15y11=0f
x16y11=0f
x17y11=0f
x18y11=0f
x19y11=0f
x20y11=0f
x21y11=0f
x22y11=0f
x23y11=0f
x24y11=0f
x25y11=0f
x26y11=0f
x27y11=0f
x28y11=0f
x29y11=0f
x30y11=0f
x31y11=0f
x32y11=0f
x33y11=0f
x34y11=0f
x35y11=0f
x36y11=0f
x37y11=0f
x38y11=0f
x39y11=0f
x40y11=0f
x41y11=0f
x42y11=0f
x43y11=0f
x44y11=0f
x45y11=0f
x46y11=f4
x47y11=00
x48y11=ee
x49y11=e0
x50y11=e6
x51y11=e0
x52y11=e0
x53y11=e6
x54y11=e0
x55y11=e6
x56y11=e0
x57y11=e0
x58y11=e0
x59y11=e0
x60y11=e0
x61y11=e6
x62y11=e0
x63y11=e0
x64y11=e6
x65y11=e0
x66y11=e6
x67y11=e0
x68y11=e0
x69y11=e6
x70y11=e0
x71y11=e0
x72y11=e6
x73y11=e0
x74y11=e0
x75y11=e0
x76y11=e6
x77y11=e0
x78y11=e0
x79y11=e6
x80y11=e0
x81y11=e6
x82y11=e0
x83y11=e6
x84y11=e0
x85y11=e0
x86y11=e0
x87y11=e6
x88y11=e0
x89y11=e0
x90y11=e6
x91y11=e0
x92y11=e0
x93y11=e0
x94y11=e6
x95y11=e0
x96y11=e0
x97y11=e6
x98y11=e0
x99y11=e6
x100y11=e0
x101y11=e6
x102y11=e0
x103y11=e0
x104y11=e0
x105y11=e6
x106y11=e0
x107y11=e0
x108y11=e6
x109y11=e0
x110y11=e0
x111y11=e0
x112y11=e6
x1y12=3c
x2y12=ee
x3y12=00
x4y12=e9
x5y12=ff
x6y12=0f
x7y12=0f
x8y12=0f
x9y12=0f
x10y12=0f
x11y12=0f
x12y12=0f
x13y12=0f
x14y12=0f
x15y12=0f
x16y12=0f
x17y12=0f
x18y12=0f
x19y12=0f
x20y12=0f
x21y12=0f
x22y12=0f
x23y12=0f
x24y12=0f
x25y12=0f
x26y12=0f
x27y12=0f
x28y12=0f
x29y12=0f
x30y12=0f
x31y12=0f
x32y12=0f
x33y12=0f
x34y12=0f
x35y12=0f
x36y12=0f
x37y12=0f
x38y12=0f
x39y12=0f
x40y12=0f
x41y12=0f
x42y12=0f
x43y12=0f
x44y12=0f
x45y12=0f
x46y12=fb
x47y12=00
x48y12=e9
x49y12=e0
x50y12=e0
x51y12=e6
x52y12=e0
x53y12=e0
x54y12=e6
x55y12=e0
x56y12=e0
x57y12=e6
x58y12=e6
x59y12=e0
x60y12=e6
x61y12=e0
x62y12=e6
x63y12=e0
x64y12=e6
x65y12=e0
x66y12=e0
x67y12=e6
x68y12=e0
x69y12=e0
x70y12=e6
x71y12=e0
x72y12=e0
x73y12=e6
x74y12=e0
x75y12=e6
x76y12=e0
x77y12=e6
x78y12=e0
x79y12=e0
x80y12=e6
x81y12=e0
x82y12=e0
x83y12=e0
x84y12=e6
x85y12=e0
x86y12=e6
x87y12=e0
x88y12=e6
x89y12=e0
x90y12=e0
x91y12=e6
x92y12=e0
x93y12=e6
x94y12=e0
x95y12=e6
x96y12=e0
x97y12=e0
x98y12=e6
x99y12=e0
x100y12=e0
x101y12=e0
x102y12=e6
x103y12=e0
x104y12=e6
x105y12=e0
x106y12=e6
x107y12=e0
x108y12=e0
x109y12=e6
x110y12=e0
x111y12=e6
x112y12=e0
x1y13=f1
x2y13=ec
x3y13=00
x4y13=ef
x5y13=0f
x6y13=0f
x7y13=0f
x8y13=0f
x9y13=0f
x10y13=0f
x11y13=0f
x12y13=0f
x13y13=0f
x14y13=0f
x15y13=0f
x16y13=0f
x17y13=0f
x18y13=0f
x19y13=0f
x20y13=0f
x21y13=0f
x22y13=0f
x23y13=0f
x24y13=0f
x25y13=0f
x26y13=0f
x27y13=0f
x28y13=0f
x29y13=0f
x30y13=0f
x31y13=0f
x32y13=0f
x33y13=0f
x34y13=0f
x35y13=0f
x36y13=0f
x37y13=0f
x38y13=0f
x39y13=0f
x40y13=0f
x41y13=0f
x42y13=0f
x43y13=0f
x44y13=0f
x45y13=0f
x46y13=ff
x47y13=e9
x48y13=00
x49y13=b5
x50y13=e6
x51y13=e0
x52y13=e6
x53y13=e0
x54y13=e0
x55y13=e6
x56y13=e0
x57y13=e0
x58y13=e0
x59y13=e6
x60y13=e0
x61y13=e0
x62y13=e0
x63y13=e6
x64y13=e0
x65y13=e0
x66y13=e6
x67y13=e0
x68y13=e6
x69y13=e0
x70y13=e0
x71y13=e6
x72y13=e0
x73y13=e6
x74y13=e0
x75y13=e0
x76y13=e6
x77y13=e0
x78y13=e6
x79y13=e0
x80y13=e0
x81y13=e6
x82y13=e0
x83y13=e6
x84y13=e0
x85y13=e6
x86y13=e0
x87y13=e0
x88y13=e0
x89y13=e6
x90y13=e0
x91y13=e6
x92y13=e0
x93y13=e0
x94y13=e6
x95y13=e0
x96y13=e6
x97y13=e0
x98y13=e0
x99y13=e6
x100y13=e0
x101y13=e6
x102y13=e0
x103y13=e6
x104y13=e0
x105y13=e0
x106y13=e0
x107y13=e6
x108y13=e0
x109y13=e6
x110y13=e0
x111y13=e0
x112y13=e6
x1y14=3c
x2y14=e9
x3y14=00
x4y14=f6
x5y14=0f
x6y14=0f
x7y14=0f
x8y14=fa
x9y14=f5
x10y14=ff
x11y14=0f
x12y14=0f
x13y14=0f
x14y14=0f
x15y14=0f
x16y14=0f
x17y14=0f
x18y14=0f
x19y14=0f
x20y14=0f
x21y14=0f
x22y14=0f
x23y14=0f
x24y14=0f
x25y14=0f
x26y14=0f
x27y14=0f
x28y14=0f
x29y14=0f
x30y14=0f
x31y14=0f
x32y14=0f
x33y14=0f
x34y14=0f
x35y14=0f
x36y14=0f
x37y14=0f
x38y14=0f
x39y14=0f
x40y14=0f
x41y14=0f
x42y14=0f
x43y14=0f
x44y14=0f
x45y14=0f
x46y14=0f
x47y14=eb
x48y14=00
x49y14=90
x50y14=ff
x51y14=e0
x52y14=e0
x53y14=e6
x54y14=e0
x55y14=e0
x56y14=e6
x57y14=e0
x58y14=e6
x59y14=e0
x60y14=e6
x61y14=e0
x62y14=e6
x63y14=e0
x64y14=e0
x65y14=e6
x66y14=e0
x67y14=e0
x68y14=e0
x69y14=e6
x70y14=e0
x71y14=e6
x72y14=e0
x73y14=e0
x74y14=e6
x75y14=e0
x76y14=e0
x77y14=e0
x78y14=e0
x79y14=e6
x80y14=e0
x81y14=e0
x82y14=e6
x83y14=e0
x84y14=e0
x85y14=e0
x86y14=e6
x87y14=e0
x88y14=e6
x89y14=e0
x90y14=e0
x91y14=e0
x92y14=e6
x93y14=e0
x94y14=e0
x95y14=e0
x96y14=e0
x97y14=e6
x98y14=e0
x99y14=e0
x100y14=e6
x101y14=e0
x102y14=e0
x103y14=e0
x104y14=e6
x105y14=e0
x106y14=e6
x107y14=e0
x108y14=e0
x109y14=e0
x110y14=e6
x111y14=e0
x112y14=e0
x1y15=08
x2y15=e8
x3y15=00
x4y15=fb
x5y15=0f
x6y15=0f
x7y15=f7
x8y15=00
x9y15=00
x10y15=ee
x11y15=0f
x12y15=0f
x13y15=0f
x14y15=0f
x15y15=0f
x16y15=0f
x17y15=0f
x18y15=0f
x19y15=0f
x20y15=0f
x21y15=0f
x22y15=0f
x23y15=0f
x24y15=0f
x25y15=0f
x26y15=0f
x27y15=0f
x28y15=0f
x29y15=0f
x30y15=0f
x31y15=0f
x32y15=0f
x33y15=0f
x34y15=0f
x35y15=0f
x36y15=0f
x37y15=0f
x38y15=0f
x39y15=0f
x40y15=0f
x41y15=0f
x42y15=0f
x43y15=0f
x44y15=0f
x45y15=0f
x46y15=0f
x47y15=ed
x48y15=00
x49y15=8a
x50y15=e6
x51y15=e0
x52y15=e6
x53y15=e0
x54y15=e6
x55y15=e0
x56y15=e0
x57y15=e6
x58y15=e0
x59y15=e0
x60y15=e0
x61y15=e6
x62y15=e0
x63y15=e6
x64y15=e0
x65y15=e0
x66y15=e6
x67y15=e0
x68y15=e6
x69y15=e0
x70y15=e0
x71y15=e0
x72y15=e6
x73y15=e0
x74y15=e0
x75y15=e6
x76y15=e0
x77y15=e6
x78y15=e0
x79y15=e6
x80y15=e0
x81y15=e6
x82y15=e0
x83y15=e0
x84y15=e6
x85y15=e0
x86y15=e0
x87y15=e6
x88y15=e0
x89y15=e0
x90y15=e6
x91y15=e0
x92y15=e0
x93y15=e6
x94y15=e0
x95y15=e6
x96y15=e0
x97y15=e6
x98y15=e0
x99y15=e6
x100y15=e0
x101y15=e0
x102y15=e6
x103y15=e0
x104y15=e6
x105y15=e0
x106y15=e0
x107y15=e6
x108y15=e0
x109y15=e6
x110y15=e0
x111y15=e6
x112y15=e0
x1y16=ef
x2y16=00
x3y16=e9
x4y16=ff
x5y16=0f
x6y16=fd
x7y16=e8
x8y16=00
x9y16=e8
x10y16=00
x11y16=fc
x12y16=0f
x13y16=0f
x14y16=0f
x15y16=0f
x16y16=0f
x17y16=0f
x18y16=0f
x19y16=0f
x20y16=0f
x21y16=0f
x22y16=0f
x23y16=0f
x24y16=0f
x25y16=0f
x26y16=0f
x27y16=0f
x28y16=0f
x29y16=0f
x30y16=0f
x31y16=0f
x32y16=0f
x33y16=0f
x34y16=0f
x35y16=0f
x36y16=0f
x37y16=0f
x38y16=0f
x39y16=0f
x40y16=0f
x41y16=0f
x42y16=0f
x43y16=0f
x44y16=0f
x45y16=0f
x46y16=0f
x47y16=ee
x48y16=00
x49y16=f6
x50y16=e6
x51y16=e0
x52y16=e0
x53y16=e6
x54y16=e0
x55y16=e6
x56y16=e0
x57y16=e0
x58y16=e6
x59y16=e0
x60y16=e6
x61y16=e0
x62y16=e0
x63y16=e0
x64y16=e6
x65y16=e0
x66y16=e0
x67y16=e6
x68y16=e0
x69y16=e6
x70y16=e0
x71y16=e6
x72y16=e0
x73y16=e6
x74y16=e0
x75y16=e0
x76y16=e6
x77y16=e0
x78y16=e6
x79y16=e0
x80y16=e0
x81y16=e0
x82y16=e6
x83y16=e0
x84y16=e0
x85y16=e6
x86y16=e6
x87y16=e0
x88y16=e6
x89y16=e6
x90y16=ff
x91y16=e6
x92y16=e6
x93y16=e0
x94y16=e6
x95y16=e0
x96y16=e6
x97y16=e0
x98y16=e0
x99y16=e0
x100y16=e6
x101y16=e0
x102y16=e6
x103y16=e0
x104y16=e0
x105y16=e6
x106y16=e0
x107y16=e6
x108y16=e0
x109y16=e0
x110y16=e6
x111y16=e0
x112y16=e6
x1y17=ed
x2y17=00
x3y17=ed
x4y17=0f
x5y17=0f
x6y17=f1
x7y17=00
x8y17=00
x9y17=00
x10y17=00
x11y17=f7
x12y17=0f
x13y17=0f
x14y17=0f
x15y17=0f
x16y17=0f
x17y17=0f
x18y17=0f
x19y17=0f
x20y17=0f
x21y17=0f
x22y17=0f
x23y17=0f
x24y17=0f
x25y17=0f
x26y17=0f
x27y17=0f
x28y17=0f
x29y17=0f
x30y17=0f
x31y17=0f
x32y17=0f
x33y17=0f
x34y17=0f
x35y17=0f
x36y17=0f
x37y17=0f
x38y17=0f
x39y17=0f
x40y17=0f
x41y17=0f
x42y17=0f
x43y17=0f
x44y17=0f
x45y17=0f
x46y17=0f
x47y17=ee
x48y17=00
x49y17=8a
x50y17=ff
x51y17=e6
x52y17=e0
x53y17=e0
x54y17=e0
x55y17=e0
x56y17=e6
x57y17=e0
x58y17=e0
x59y17=e6
x60y17=e0
x61y17=e6
x62y17=e0
x63y17=e6
x64y17=e0
x65y17=e6
x66y17=e0
x67y17=e0
x68y17=e6
x69y17=e0
x70y17=e0
x71y17=e6
x72y17=e0
x73y17=e0
x74y17=e6
x75y17=e0
x76y17=e0
x77y17=e6
x78y17=e0
x79y17=e0
x80y17=e6
x81y17=e0
x82y17=e6
x83y17=e6
x84y17=e0
x85y17=bb
x86y17=b5
x87y17=f7
x88y17=8a
x89y17=f6
x90y17=8a
x91y17=f7
x92y17=b5
x93y17=bb
x94y17=fc
x95y17=e0
x96y17=e6
x97y17=e6
x98y17=e6
x99y17=e0
x100y17=e0
x101y17=e0
x102y17=e0
x103y17=e6
x104y17=e0
x105y17=e0
x106y17=e6
x107y17=e0
x108y17=e6
x109y17=e0
x110y17=e0
x111y17=e0
x112y17=e0
x1y18=ec
x2y18=00
x3y18=f0
x4y18=0f
x5y18=fe
x6y18=e9
x7y18=00
x8y18=00
x9y18=e8
x10y18=00
x11y18=66
x12y18=0f
x13y18=0f
x14y18=0f
x15y18=0f
x16y18=0f
x17y18=0f
x18y18=0f
x19y18=0f
x20y18=0f
x21y18=0f
x22y18=0f
x23y18=0f
x24y18=0f
x25y18=0f
x26y18=0f
x27y18=0f
x28y18=0f
x29y18=0f
x30y18=0f
x31y18=0f
x32y18=0f
x33y18=0f
x34y18=0f
x35y18=0f
x36y18=0f
x37y18=0f
x38y18=0f
x39y18=0f
x40y18=0f
x41y18=0f
x42y18=0f
x43y18=0f
x44y18=0f
x45y18=0f
x46y18=0f
x47y18=ed
x48y18=00
x49y18=f7
x50y18=e6
x51y18=e0
x52y18=e0
x53y18=e6
x54y18=e0
x55y18=e6
x56y18=e0
x57y18=e6
x58y18=e0
x59y18=e0
x60y18=e6
x61y18=e0
x62y18=e0
x63y18=e6
x64y18=e0
x65y18=e0
x66y18=e6
x67y18=e0
x68y18=e0
x69y18=e6
x70y18=e0
x71y18=e0
x72y18=e6
x73y18=e0
x74y18=e0
x75y18=e6
x76y18=e0
x77y18=e0
x78y18=e6
x79y18=e0
x80y18=e6
x81y18=e6
x82y18=b5
x83y18=f3
x84y18=ec
x85y18=e8
x86y18=00
x87y18=00
x88y18=00
x89y18=00
x90y18=00
x91y18=00
x92y18=00
x93y18=00
x94y18=e9
x95y18=eb
x96y18=ef
x97y18=f3
x98y18=f8
x99y18=bb
x100y18=e0
x101y18=e6
x102y18=e6
x103y18=e0
x104y18=e6
x105y18=e0
x106y18=e0
x107y18=e0
x108y18=e0
x109y18=e6
x110y18=e0
x111y18=e6
x112y18=e0
x1y19=eb
x2y19=00
x3y19=f3
x4y19=0f
x5y19=07
x6y19=00
x7y19=00
x8y19=00
x9y19=00
x10y19=00
x11y19=f5
x12y19=0f
x13y19=0f
x14y19=0f
x15y19=0f
x16y19=0f
x17y19=0f
x18y19=0f
x19y19=0f
x20y19=0f
x21y19=0f
x22y19=0f
x23y19=0f
x24y19=0f
x25y19=0f
x26y19=0f
x27y19=0f
x28y19=0f
x29y19=0f
x30y19=0f
x31y19=0f
x32y19=0f
x33y19=0f
x34y19=0f
x35y19=0f
x36y19=0f
x37y19=0f
x38y19=0f
x39y19=0f
x40y19=0f
x41y19=0f
x42y19=0f
x43y19=0f
x44y19=0f
x45y19=0f
x46y19=0f
x47y19=eb
x48y19=00
x49y19=90
x50y19=ff
x51y19=e0
x52y19=e6
x53y19=e0
x54y19=e6
x55y19=e0
x56y19=e0
x57y19=e0
x58y19=e6
x59y19=e0
x60y19=e0
x61y19=e6
x62y19=e0
x63y19=e0
x64y19=e6
x65y19=e0
x66y19=e0
x67y19=e6
x68y19=e0
x69y19=e0
x70y19=e6
x71y19=e0
x72y19=e0
x73y19=e6
x74y19=e0
x75y19=e0
x76y19=e6
x77y19=e0
x78y19=e0
x79y19=e6
x80y19=e0
x81y19=3b
x82y19=e8
x83y19=00
x84y19=00
x85y19=e8
x86y19=eb
x87y19=ed
x88y19=ee
x89y19=ef
x90y19=ee
x91y19=ed
x92y19=ec
x93y19=e9
x94y19=00
x95y19=00
x96y19=00
x97y19=00
x98y19=00
x99y19=e8
x100y19=ec
x101y19=f1
x102y19=f7
x103y19=bb
x104y19=ff
x105y19=e6
x106y19=e6
x107y19=e0
x108y19=e6
x109y19=e0
x110y19=e6
x111y19=e0
x112y19=e6
x1y20=ea
x2y20=00
x3y20=f6
x4y20=0f
x5y20=f2
x6y20=00
x7y20=00
x8y20=00
x9y20=00
x10y20=00
x11y20=f7
x12y20=0f
x13y20=0f
x14y20=0f
x15y20=0f
x16y20=0f
x17y20=0f
x18y20=0f
x19y20=0f
x20y20=0f
x21y20=0f
x22y20=0f
x23y20=0f
x24y20=0f
x25y20=0f
x26y20=0f
x27y20=0f
x28y20=0f
x29y20=0f
x30y20=0f
x31y20=0f
x32y20=0f
x33y20=0f
x34y20=0f
x35y20=0f
x36y20=0f
x37y20=0f
x38y20=0f
x39y20=0f
x40y20=0f
x41y20=0f
x42y20=0f
x43y20=0f
x44y20=0f
x45y20=0f
x46y20=ff
x47y20=e9
x48y20=00
x49y20=b5
x50y20=e6
x51y20=e0
x52y20=e0
x53y20=e6
x54y20=e0
x55y20=e0
x56y20=e6
x57y20=e0
x58y20=e6
x59y20=e0
x60y20=e6
x61y20=e0
x62y20=e6
x63y20=e0
x64y20=e0
x65y20=e6
x66y20=e0
x67y20=e6
x68y20=e0
x69y20=e6
x70y20=e0
x71y20=e6
x72y20=e0
x73y20=e0
x74y20=e6
x75y20=e0
x76y20=e6
x77y20=e0
x78y20=e6
x79y20=e0
x80y20=ec
x81y20=00
x82y20=00
x83y20=ef
x84y20=f8
x85y20=fd
x86y20=0f
x87y20=0f
x88y20=0f
x89y20=0f
x90y20=0f
x91y20=0f
x92y20=0f
x93y20=ff
x94y20=fd
x95y20=fa
x96y20=f6
x97y20=3b
x98y20=ec
x99y20=e8
x100y20=00
x101y20=00
x102y20=00
x103y20=e9
x104y20=ee
x105y20=66
x106y20=b5
x107y20=e6
x108y20=ff
x109y20=e0
x110y20=e0
x111y20=e0
x112y20=e0
x1y21=e9
x2y21=00
x3y21=91
x4y21=0f
x5y21=ed
x6y21=00
x7y21=00
x8y21=00
x9y21=00
x10y21=00
x11y21=fa
x12y21=0f
x13y21=0f
x14y21=0f
x15y21=0f
x16y21=0f
x17y21=0f
x18y21=0f
x19y21=0f
x20y21=0f
x21y21=0f
x22y21=0f
x23y21=0f
x24y21=0f
x25y21=0f
x26y21=0f
x27y21=0f
x28y21=0f
x29y21=0f
x30y21=0f
x31y21=0f
x32y21=0f
x33y21=0f
x34y21=0f
x35y21=0f
x36y21=0f
x37y21=0f
x38y21=0f
x39y21=0f
x40y21=0f
x41y21=0f
x42y21=0f
x43y21=0f
x44y21=0f
x45y21=0f
x46y21=fc
x47y21=00
x48y21=e9
x49y21=e0
x50y21=e0
x51y21=e6
x52y21=e0
x53y21=e0
x54y21=e6
x55y21=e0
x56y21=e6
x57y21=e0
x58y21=e0
x59y21=e6
x60y21=e0
x61y21=e0
x62y21=e0
x63y21=e6
x64y21=e0
x65y21=e0
x66y21=e6
x67y21=e0
x68y21=e0
x69y21=e0
x70y21=e6
x71y21=e0
x72y21=e6
x73y21=e0
x74y21=e6
x75y21=e0
x76y21=e0
x77y21=e0
x78y21=e6
x79y21=f1
x80y21=00
x81y21=e9
x82y21=f9
x83y21=0f
x84y21=0f
x85y21=0f
x86y21=0f
x87y21=0f
x88y21=0f
x89y21=0f
x90y21=0f
x91y21=0f
x92y21=0f
x93y21=0f
x94y21=0f
x95y21=0f
x96y21=0f
x97y21=0f
x98y21=0f
x99y21=fe
x100y21=07
x101y21=f2
x102y21=ec
x103y21=00
x104y21=00
x105y21=00
x106y21=e8
x107y21=ed
x108y21=66
x109y21=bb
x110y21=e6
x111y21=e6
x112y21=e6
x1y22=e9
x2y22=00
x3y22=fa
x4y22=0f
x5y22=eb
x6y22=00
x7y22=00
x8y22=00
x9y22=00
x10y22=e8
x11y22=fe
x12y22=0f
x13y22=0f
x14y22=0f
x15y22=0f
x16y22=0f
x17y22=0f
x18y22=0f
x19y22=0f
x20y22=0f
x21y22=0f
x22y22=0f
x23y22=0f
x24y22=0f
x25y22=0f
x26y22=0f
x27y22=0f
x28y22=0f
x29y22=0f
x30y22=0f
x31y22=0f
x32y22=0f
x33y22=0f
x34y22=0f
x35y22=0f
x36y22=0f
x37y22=0f
x38y22=0f
x39y22=0f
x40y22=0f
x41y22=0f
x42y22=0f
x43y22=0f
x44y22=0f
x45y22=0f
x46y22=91
x47y22=00
x48y22=ec
x49y22=e6
x50y22=e0
x51y22=e0
x52y22=e6
x53y22=e0
x54y22=e0
x55y22=e6
x56y22=e0
x57y22=e6
x58y22=e0
x59y22=e0
x60y22=e6
x61y22=e0
x62y22=e6
x63y22=e0
x64y22=e6
x65y22=e0
x66y22=e0
x67y22=e6
x68y22=e0
x69y22=e6
x70y22=e0
x71y22=e0
x72y22=e0
x73y22=e6
x74y22=e0
x75y22=e0
x76y22=e6
x77y22=e6
x78y22=b5
x79y22=00
x80y22=00
x81y22=f9
x82y22=0f
x83y22=0f
x84y22=0f
x85y22=0f
x86y22=0f
x87y22=0f
x88y22=0f
x89y22=0f
x90y22=0f
x91y22=0f
x92y22=0f
x93y22=0f
x94y22=0f
x95y22=0f
x96y22=0f
x97y22=0f
x98y22=0f
x99y22=0f
x100y22=0f
x101y22=0f
x102y22=0f
x103y22=fc
x104y22=f5
x105y22=ee
x106y22=e8
x107y22=00
x108y22=00
x109y22=e8
x110y22=ee
x111y22=8a
x112y22=fd
x1y23=e8
x2y23=00
x3y23=fb
x4y23=0f
x5y23=ea
x6y23=00
x7y23=00
x8y23=00
x9y23=00
x10y23=ed
x11y23=0f
x12y23=0f
x13y23=0f
x14y23=0f
x15y23=0f
x16y23=0f
x17y23=0f
x18y23=0f
x19y23=0f
x20y23=0f
x21y23=0f
x22y23=0f
x23y23=0f
x24y23=0f
x25y23=0f
x26y23=0f
x27y23=0f
x28y23=0f
x29y23=0f
x30y23=0f
x31y23=0f
x32y23=0f
x33y23=0f
x34y23=0f
x35y23=0f
x36y23=0f
x37y23=0f
x38y23=0f
x39y23=0f
x40y23=0f
x41y23=0f
x42y23=0f
x43y23=0f
x44y23=0f
x45y23=0f
x46y23=f3
x47y23=00
x48y23=f0
x49y23=e6
x50y23=e0
x51y23=e0
x52y23=e0
x53y23=e6
x54y23=e0
x55y23=e0
x56y23=e0
x57y23=e0
x58y23=e6
x59y23=e0
x60y23=e0
x61y23=e6
x62y23=e0
x63y23=e0
x64y23=e0
x65y23=e6
x66y23=e0
x67y23=e6
x68y23=e0
x69y23=e0
x70y23=e6
x71y23=e0
x72y23=e6
x73y23=e0
x74y23=e0
x75y23=e6
x76y23=e0
x77y23=e0
x78y23=ed
x79y23=00
x80y23=3b
x81y23=0f
x82y23=0f
x83y23=0f
x84y23=0f
x85y23=0f
x86y23=0f
x87y23=0f
x88y23=0f
x89y23=0f
x90y23=0f
x91y23=0f
x92y23=0f
x93y23=0f
x94y23=0f
x95y23=0f
x96y23=0f
x97y23=0f
x98y23=0f
x99y23=0f
x100y23=0f
x101y23=0f
x102y23=0f
x103y23=0f
x104y23=0f
x105y23=0f
x106y23=fd
x107y23=f6
x108y23=ed
x109y23=00
x110y23=00
x111y23=00
x112y23=ea
x1y24=e8
x2y24=00
x3y24=fc
x4y24=0f
x5y24=ea
x6y24=00
x7y24=00
x8y24=00
x9y24=00
x10y24=66
x11y24=0f
x12y24=0f
x13y24=0f
x14y24=0f
x15y24=0f
x16y24=0f
x17y24=0f
x18y24=0f
x19y24=0f
x20y24=0f
x21y24=0f
x22y24=0f
x23y24=0f
x24y24=0f
x25y24=0f
x26y24=0f
x27y24=0f
x28y24=0f
x29y24=0f
x30y24=0f
x31y24=0f
x32y24=0f
x33y24=0f
x34y24=0f
x35y24=0f
x36y24=0f
x37y24=0f
x38y24=0f
x39y24=0f
x40y24=0f
x41y24=0f
x42y24=0f
x43y24=0f
x44y24=0f
x45y24=0f
x46y24=ee
x47y24=00
x48y24=8a
x49y24=0f
x50y24=e6
x51y24=e6
x52y24=e6
x53y24=ff
x54y24=e6
x55y24=e6
x56y24=e6
x57y24=e6
x58y24=e0
x59y24=e6
x60y24=e0
x61y24=e0
x62y24=e0
x63y24=e6
x64y24=e0
x65y24=e0
x66y24=e6
x67y24=e0
x68y24=e6
x69y24=e0
x70y24=e0
x71y24=e6
x72y24=e0
x73y24=e0
x74y24=e6
x75y24=e0
x76y24=e6
x77y24=f9
x78y24=e8
x79y24=e8
x80y24=fd
x81y24=0f
x82y24=0f
x83y24=0f
x84y24=0f
x85y24=0f
x86y24=0f
x87y24=0f
x88y24=0f
x89y24=0f
x90y24=0f
x91y24=0f
x92y24=0f
x93y24=0f
x94y24=0f
x95y24=0f
x96y24=0f
x97y24=0f
x98y24=0f
x99y24=0f
x100y24=0f
x101y24=0f
x102y24=0f
x103y24=0f
x104y24=0f
x105y24=0f
x106y24=0f
x107y24=0f
x108y24=0f
x109y24=fc
x110y24=f4
x111y24=eb
x112y24=00
x1y25=e8
x2y25=00
x3y25=fb
x4y25=0f
x5y25=ec
x6y25=00
x7y25=00
x8y25=e8
x9y25=e8
x10y25=fe
x11y25=0f
x12y25=0f
x13y25=0f
x14y25=0f
x15y25=0f
x16y25=0f
x17y25=0f
x18y25=0f
x19y25=0f
x20y25=0f
x21y25=0f
x22y25=0f
x23y25=0f
x24y25=0f
x25y25=0f
x26y25=0f
x27y25=0f
x28y25=0f
x29y25=0f
x30y25=0f
x31y25=0f
x32y25=0f
x33y25=0f
x34y25=0f
x35y25=0f
x36y25=0f
x37y25=0f
x38y25=0f
x39y25=0f
x40y25=0f
x41y25=0f
x42y25=0f
x43y25=0f
x44y25=0f
x45y25=fe
x46y25=e8
x47y25=00
x48y25=f2
x49y25=65
x50y25=f2
x51y25=5f
x52y25=f2
x53y25=5f
x54y25=f4
x55y25=8a
x56y25=f7
x57y25=b5
x58y25=b5
x59y25=e0
x60y25=e6
x61y25=e6
x62y25=e6
x63y25=e0
x64y25=e6
x65y25=e0
x66y25=e0
x67y25=e0
x68y25=e0
x69y25=e6
x70y25=e0
x71y25=e0
x72y25=e6
x73y25=e0
x74y25=e0
x75y25=e0
x76y25=e6
x77y25=f0
x78y25=00
x79y25=f1
x80y25=0f
x81y25=0f
x82y25=0f
x83y25=0f
x84y25=0f
x85y25=0f
x86y25=0f
x87y25=0f
x88y25=0f
x89y25=0f
x90y25=0f
x91y25=0f
x92y25=0f
x93y25=0f
x94y25=0f
x95y25=0f
x96y25=0f
x97y25=0f
x98y25=0f
x99y25=0f
x100y25=0f
x101y25=0f
x102y25=0f
x103y25=0f
x104y25=0f
x105y25=0f
x106y25=0f
x107y25=0f
x108y25=0f
x109y25=0f
x110y25=0f
x111y25=0f
x112y25=f9
x1y26=e8
x2y26=00
x3y26=fa
x4y26=0f
x5y26=f1
x6y26=00
x7y26=e8
x8y26=00
x9y26=f4
x10y26=0f
x11y26=0f
x12y26=0f
x13y26=0f
x14y26=0f
x15y26=0f
x16y26=0f
x17y26=0f
x18y26=0f
x19y26=0f
x20y26=0f
x21y26=0f
x22y26=0f
x23y26=0f
x24y26=0f
x25y26=0f
x26y26=0f
x27y26=0f
x28y26=0f
x29y26=0f
x30y26=0f
x31y26=0f
x32y26=0f
x33y26=0f
x34y26=0f
x35y26=0f
x36y26=0f
x37y26=0f
x38y26=0f
x39y26=0f
x40y26=0f
x41y26=0f
x42y26=0f
x43y26=0f
x44y26=0f
x45y26=f8
x46y26=00
x47y26=e8
x48y26=00
x49y26=00
x50y26=00
x51y26=00
x52y26=00
x53y26=00
x54y26=00
x55y26=00
x56y26=00
x57y26=00
x58y26=e8
x59y26=ea
x60y26=ec
x61y26=3b
x62y26=8a
x63y26=fa
x64y26=e0
x65y26=e6
x66y26=e6
x67y26=e6
x68y26=e0
x69y26=e0
x70y26=e6
x71y26=e0
x72y26=e0
x73y26=e6
x74y26=e0
x75y26=e6
x76y26=e0
x77y26=e8
x78y26=00
x79y26=fb
x80y26=0f
x81y26=0f
x82y26=0f
x83y26=0f
x84y26=0f
x85y26=0f
x86y26=0f
x87y26=0f
x88y26=0f
x89y26=0f
x90y26=0f
x91y26=0f
x92y26=0f
x93y26=0f
x94y26=0f
x95y26=0f
x96y26=0f
x97y26=0f
x98y26=0f
x99y26=0f
x100y26=0f
x101y26=0f
x102y26=0f
x103y26=0f
x104y26=0f
x105y26=0f
x106y26=0f
x107y26=0f
x108y26=0f
x109y26=0f
x110y26=0f
x111y26=0f
x112y26=0f
x1y27=e8
x2y27=00
x3y27=fa
x4y27=0f
x5y27=fc
x6y27=e9
x7y27=00
x8y27=08
x9y27=0f
x10y27=0f
x11y27=0f
x12y27=0f
x13y27=0f
x14y27=0f
x15y27=0f
x16y27=0f
x17y27=0f
x18y27=0f
x19y27=0f
x20y27=0f
x21y27=0f
x22y27=0f
x23y27=0f
x24y27=0f
x25y27=0f
x26y27=0f
x27y27=0f
x28y27=0f
x29y27=0f
x30y27=0f
x31y27=0f
x32y27=0f
x33y27=0f
x34y27=0f
x35y27=0f
x36y27=0f
x37y27=0f
x38y27=0f
x39y27=0f
x40y27=0f
x41y27=0f
x42y27=0f
x43y27=0f
x44y27=0f
x45y27=08
x46y27=00
x47y27=00
x48y27=00
x49y27=00
x50y27=00
x51y27=00
x52y27=00
x53y27=00
x54y27=00
x55y27=00
x56y27=00
x57y27=00
x58y27=00
x59y27=00
x60y27=00
x61y27=00
x62y27=00
x63y27=e8
x64y27=eb
x65y27=f0
x66y27=8a
x67y27=e0
x68y27=e6
x69y27=e6
x70y27=e0
x71y27=e6
x72y27=e0
x73y27=e6
x74y27=e0
x75y27=e6
x76y27=8a
x77y27=00
x78y27=eb
x79y27=0f
x80y27=0f
x81y27=0f
x82y27=0f
x83y27=0f
x84y27=0f
x85y27=0f
x86y27=0f
x87y27=0f
x88y27=0f
x89y27=0f
x90y27=0f
x91y27=0f
x92y27=0f
x93y27=0f
x94y27=0f
x95y27=0f
x96y27=0f
x97y27=0f
x98y27=0f
x99y27=0f
x100y27=0f
x101y27=0f
x102y27=0f
x103y27=0f
x104y27=0f
x105y27=0f
x106y27=0f
x107y27=0f
x108y27=0f
x109y27=0f
x110y27=0f
x111y27=0f
x112y27=0f
x1y28=e8
x2y28=00
x3y28=f8
x4y28=0f
x5y28=0f
x6y28=fd
x7y28=fa
x8y28=0f
x9y28=0f
x10y28=0f
x11y28=0f
x12y28=0f
x13y28=0f
x14y28=0f
x15y28=0f
x16y28=0f
x17y28=0f
x18y28=0f
x19y28=0f
x20y28=0f
x21y28=0f
x22y28=0f
x23y28=0f
x24y28=0f
x25y28=0f
x26y28=0f
x27y28=0f
x28y28=0f
x29y28=0f
x30y28=0f
x31y28=0f
x32y28=0f
x33y28=0f
x34y28=0f
x35y28=0f
x36y28=0f
x37y28=0f
x38y28=0f
x39y28=0f
x40y28=0f
x41y28=0f
x42y28=0f
x43y28=0f
x44y28=fe
x45y28=e9
x46y28=00
x47y28=ed
x48y28=f0
x49y28=5f
x50y28=f2
x51y28=f3
x52y28=5f
x53y28=f2
x54y28=f0
x55y28=ee
x56y28=ec
x57y28=ea
x58y28=00
x59y28=00
x60y28=00
x61y28=00
x62y28=00
x63y28=00
x64y28=00
x65y28=00
x66y28=00
x67y28=ea
x68y28=3b
x69y28=b5
x70y28=e0
x71y28=e6
x72y28=e0
x73y28=e0
x74y28=e0
x75y28=e6
x76y28=3b
x77y28=00
x78y28=f3
x79y28=0f
x80y28=0f
x81y28=0f
x82y28=0f
x83y28=0f
x84y28=fc
x85y28=fa
x86y28=0f
x87y28=0f
x88y28=0f
x89y28=0f
x90y28=0f
x91y28=0f
x92y28=0f
x93y28=0f
x94y28=0f
x95y28=0f
x96y28=0f
x97y28=0f
x98y28=0f
x99y28=0f
x100y28=0f
x101y28=0f
x102y28=0f
x103y28=0f
x104y28=0f
x105y28=0f
x106y28=0f
x107y28=0f
x108y28=0f
x109y28=0f
x110y28=0f
x111y28=0f
x112y28=0f
x1y29=00
x2y29=00
x3y29=f5
x4y29=0f
x5y29=0f
x6y29=0f
x7y29=0f
x8y29=0f
x9y29=0f
x10y29=0f
x11y29=0f
x12y29=0f
x13y29=0f
x14y29=0f
x15y29=0f
x16y29=0f
x17y29=0f
x18y29=0f
x19y29=0f
x20y29=0f
x21y29=0f
x22y29=0f
x23y29=0f
x24y29=0f
x25y29=0f
x26y29=0f
x27y29=0f
x28y29=0f
x29y29=0f
x30y29=0f
x31y29=0f
x32y29=0f
x33y29=0f
x34y29=0f
x35y29=0f
x36y29=0f
x37y29=0f
x38y29=0f
x39y29=0f
x40y29=0f
x41y29=0f
x42y29=0f
x43y29=0f
x44y29=f6
x45y29=00
x46y29=eb
x47y29=e0
x48y29=e6
x49y29=e6
x50y29=e6
x51y29=e6
x52y29=e6
x53y29=ff
x54y29=e6
x55y29=e6
x56y29=e0
x57y29=e0
x58y29=bb
x59y29=8a
x60y29=f3
x61y29=ed
x62y29=e9
x63y29=00
x64y29=00
x65y29=00
x66y29=00
x67y29=00
x68y29=00
x69y29=00
x70y29=ed
x71y29=90
x72y29=e0
x73y29=e6
x74y29=e0
x75y29=e0
x76y29=eb
x77y29=00
x78y29=f9
x79y29=0f
x80y29=0f
x81y29=0f
x82y29=0f
x83y29=66
x84y29=00
x85y29=00
x86y29=f3
x87y29=0f
x88y29=0f
x89y29=0f
x90y29=0f
x91y29=0f
x92y29=0f
x93y29=0f
x94y29=0f
x95y29=0f
x96y29=0f
x97y29=0f
x98y29=0f
x99y29=0f
x100y29=0f
x101y29=0f
x102y29=0f
x103y29=0f
x104y29=0f
x105y29=0f
x106y29=0f
x107y29=0f
x108y29=0f
x109y29=0f
x110y29=0f
x111y29=0f
x112y29=0f
x1y30=ed
x2y30=00
x3y30=f2
x4y30=0f
x5y30=0f
x6y30=0f
x7y30=0f
x8y30=0f
x9y30=0f
x10y30=0f
x11y30=0f
x12y30=0f
x13y30=0f
x14y30=0f
x15y30=0f
x16y30=0f
x17y30=0f
x18y30=0f
x19y30=0f
x20y30=0f
x21y30=0f
x22y30=0f
x23y30=0f
x24y30=0f
x25y30=0f
x26y30=0f
x27y30=0f
x28y30=0f
x29y30=0f
x30y30=0f
x31y30=0f
x32y30=0f
x33y30=0f
x34y30=0f
x35y30=0f
x36y30=0f
x37y30=0f
x38y30=0f
x39y30=0f
x40y30=0f
x41y30=0f
x42y30=0f
x43y30=0f
x44y30=eb
x45y30=00
x46y30=66
x47y30=e6
x48y30=e0
x49y30=ff
x50y30=e0
x51y30=e0
x52y30=e0
x53y30=e0
x54y30=e0
x55y30=e0
x56y30=e6
x57y30=e0
x58y30=e6
x59y30=ff
x60y30=e6
x61y30=e6
x62y30=e0
x63y30=f7
x64y30=f1
x65y30=ea
x66y30=00
x67y30=00
x68y30=00
x69y30=e8
x70y30=00
x71y30=00
x72y30=ed
x73y30=90
x74y30=0f
x75y30=bb
x76y30=e8
x77y30=e8
x78y30=fe
x79y30=0f
x80y30=0f
x81y30=0f
x82y30=f7
x83y30=00
x84y30=00
x85y30=00
x86y30=e8
x87y30=fe
x88y30=0f
x89y30=0f
x90y30=0f
x91y30=0f
x92y30=0f
x93y30=0f
x94y30=0f
x95y30=0f
x96y30=0f
x97y30=0f
x98y30=0f
x99y30=0f
x100y30=0f
x101y30=0f
x102y30=0f
x103y30=0f
x104y30=0f
x105y30=0f
x106y30=0f
x107y30=0f
x108y30=0f
x109y30=0f
x110y30=0f
x111y30=0f
x112y30=0f
x1y31=f3
x2y31=00
x3y31=ee
x4y31=0f
x5y31=0f
x6y31=0f
x7y31=0f
x8y31=0f
x9y31=0f
x10y31=0f
x11y31=0f
x12y31=0f
x13y31=0f
x14y31=0f
x15y31=0f
x16y31=0f
x17y31=0f
x18y31=0f
x19y31=0f
x20y31=0f
x21y31=0f
x22y31=0f
x23y31=0f
x24y31=0f
x25y31=0f
x26y31=0f
x27y31=0f
x28y31=0f
x29y31=0f
x30y31=0f
x31y31=0f
x32y31=0f
x33y31=0f
x34y31=0f
x35y31=0f
x36y31=0f
x37y31=0f
x38y31=0f
x39y31=0f
x40y31=0f
x41y31=0f
x42y31=0f
x43y31=f8
x44y31=00
x45y31=ea
x46y31=bb
x47y31=fb
x48y31=b5
x49y31=b5
x50y31=bb
x51y31=e0
x52y31=e6
x53y31=e6
x54y31=e6
x55y31=e0
x56y31=e0
x57y31=e0
x58y31=e0
x59y31=e0
x60y31=e0
x61y31=e0
x62y31=e6
x63y31=e0
x64y31=e6
x65y31=e0
x66y31=f8
x67y31=ef
x68y31=e8
x69y31=00
x70y31=00
x71y31=e8
x72y31=00
x73y31=00
x74y31=08
x75y31=65
x76y31=00
x77y31=ed
x78y31=0f
x79y31=0f
x80y31=0f
x81y31=fe
x82y31=e9
x83y31=00
x84y31=00
x85y31=00
x86y31=00
x87y31=fa
x88y31=0f
x89y31=0f
x90y31=0f
x91y31=0f
x92y31=0f
x93y31=0f
x94y31=0f
x95y31=0f
x96y31=0f
x97y31=0f
x98y31=0f
x99y31=0f
x100y31=0f
x101y31=0f
x102y31=0f
x103y31=0f
x104y31=0f
x105y31=0f
x106y31=0f
x107y31=0f
x108y31=0f
x109y31=0f
x110y31=0f
x111y31=0f
x112y31=0f
x1y32=90
x2y32=00
x3y32=ea
x4y32=ff
x5y32=0f
x6y32=0f
x7y32=0f
x8y32=0f
x9y32=0f
x10y32=0f
x11y32=0f
x12y32=0f
x13y32=0f
x14y32=0f
x15y32=0f
x16y32=0f
x17y32=0f
x18y32=0f
x19y32=0f
x20y32=0f
x21y32=0f
x22y32=0f
x23y32=0f
x24y32=0f
x25y32=0f
x26y32=0f
x27y32=0f
x28y32=0f
x29y32=0f
x30y32=0f
x31y32=0f
x32y32=0f
x33y32=0f
x34y32=0f
x35y32=0f
x36y32=0f
x37y32=0f
x38y32=0f
x39y32=0f
x40y32=0f
x41y32=0f
x42y32=0f
x43y32=eb
x44y32=00
x45y32=e9
x46y32=e9
x47y32=00
x48y32=00
x49y32=00
x50y32=00
x51y32=eb
x52y32=08
x53y32=8a
x54y32=bc
x55y32=e6
x56y32=e6
x57y32=e0
x58y32=e6
x59y32=e0
x60y32=e6
x61y32=e0
x62y32=e0
x63y32=e6
x64y32=e0
x65y32=e6
x66y32=e6
x67y32=e0
x68y32=bb
x69y32=f2
x70y32=e9
x71y32=00
x72y32=00
x73y32=00
x74y32=00
x75y32=00
x76y32=00
x77y32=3b
x78y32=0f
x79y32=0f
x80y32=0f
x81y32=f3
x82y32=00
x83y32=00
x84y32=00
x85y32=00
x86y32=00
x87y32=91
x88y32=0f
x89y32=0f
x90y32=0f
x91y32=0f
x92y32=0f
x93y32=0f
x94y32=0f
x95y32=0f
x96y32=0f
x97y32=0f
x98y32=0f
x99y32=0f
x100y32=0f
x101y32=0f
x102y32=0f
x103y32=0f
x104y32=0f
x105y32=0f
x106y32=0f
x107y32=0f
x108y32=0f
x109y32=0f
x110y32=0f
x111y32=0f
x112y32=0f
x1y33=bc
x2y33=e9
x3y33=00
x4y33=fa
x5y33=0f
x6y33=0f
x7y33=0f
x8y33=0f
x9y33=0f
x10y33=0f
x11y33=0f
x12y33=0f
x13y33=0f
x14y33=0f
x15y33=0f
x16y33=0f
x17y33=0f
x18y33=0f
x19y33=0f
x20y33=0f
x21y33=0f
x22y33=0f
x23y33=0f
x24y33=0f
x25y33=0f
x26y33=0f
x27y33=0f
x28y33=0f
x29y33=0f
x30y33=0f
x31y33=0f
x32y33=0f
x33y33=0f
x34y33=0f
x35y33=0f
x36y33=0f
x37y33=0f
x38y33=0f
x39y33=0f
x40y33=0f
x41y33=0f
x42y33=f5
x43y33=00
x44y33=00
x45y33=00
x46y33=e8
x47y33=ec
x48y33=ee
x49y33=ed
x50y33=ea
x51y33=00
x52y33=00
x53y33=00
x54y33=e9
x55y33=f3
x56y33=e0
x57y33=e6
x58y33=e0
x59y33=e0
x60y33=e6
x61y33=e0
x62y33=e6
x63y33=e0
x64y33=e0
x65y33=e0
x66y33=e0
x67y33=e6
x68y33=e0
x69y33=e6
x70y33=bc
x71y33=65
x72y33=e9
x73y33=00
x74y33=00
x75y33=e8
x76y33=00
x77y33=66
x78y33=0f
x79y33=0f
x80y33=ff
x81y33=ea
x82y33=00
x83y33=00
x84y33=00
x85y33=00
x86y33=00
x87y33=f9
x88y33=0f
x89y33=0f
x90y33=0f
x91y33=0f
x92y33=0f
x93y33=0f
x94y33=0f
x95y33=0f
x96y33=0f
x97y33=0f
x98y33=0f
x99y33=0f
x100y33=0f
x101y33=0f
x102y33=0f
x103y33=0f
x104y33=0f
x105y33=0f
x106y33=0f
x107y33=0f
x108y33=0f
x109y33=0f
x110y33=0f
x111y33=0f
x112y33=0f
x1y34=e6
x2y34=ef
x3y34=00
x4y34=f2
x5y34=0f
x6y34=0f
x7y34=0f
x8y34=0f
x9y34=0f
x10y34=0f
x11y34=0f
x12y34=0f
x13y34=0f
x14y34=0f
x15y34=0f
x16y34=0f
x17y34=0f
x18y34=0f
x19y34=0f
x20y34=0f
x21y34=0f
x22y34=0f
x23y34=0f
x24y34=0f
x25y34=0f
x26y34=0f
x27y34=0f
x28y34=0f
x29y34=0f
x30y34=0f
x31y34=0f
x32y34=0f
x33y34=0f
x34y34=0f
x35y34=0f
x36y34=0f
x37y34=0f
x38y34=0f
x39y34=0f
x40y34=0f
x41y34=bc
x42y34=e9
x43y34=00
x44y34=e9
x45y34=f5
x46y34=df
x47y34=e0
x48y34=e6
x49y34=e0
x50y34=e0
x51y34=bb
x52y34=f6
x53y34=ef
x54y34=e8
x55y34=00
x56y34=e8
x57y34=8a
x58y34=e6
x59y34=e0
x60y34=e0
x61y34=e6
x62y34=e0
x63y34=e0
x64y34=e6
x65y34=e0
x66y34=e6
x67y34=e0
x68y34=e0
x69y34=e0
x70y34=e6
x71y34=ff
x72y34=df
x73y34=f1
x74y34=e8
x75y34=00
x76y34=00
x77y34=f8
x78y34=0f
x79y34=0f
x80y34=f9
x81y34=00
x82y34=00
x83y34=00
x84y34=00
x85y34=00
x86y34=00
x87y34=fb
x88y34=0f
x89y34=0f
x90y34=0f
x91y34=0f
x92y34=0f
x93y34=0f
x94y34=0f
x95y34=0f
x96y34=0f
x97y34=0f
x98y34=0f
x99y34=0f
x100y34=0f
x101y34=0f
x102y34=0f
x103y34=0f
x104y34=0f
x105y34=0f
x106y34=0f
x107y34=0f
x108y34=0f
x109y34=0f
x110y34=0f
x111y34=0f
x112y34=0f
x1y35=e6
x2y35=8a
x3y35=e8
x4y35=e8
x5y35=66
x6y35=ff
x7y35=0f
x8y35=0f
x9y35=0f
x10y35=0f
x11y35=0f
x12y35=0f
x13y35=0f
x14y35=0f
x15y35=0f
x16y35=0f
x17y35=0f
x18y35=0f
x19y35=0f
x20y35=0f
x21y35=0f
x22y35=0f
x23y35=0f
x24y35=0f
x25y35=0f
x26y35=0f
x27y35=0f
x28y35=0f
x29y35=0f
x30y35=0f
x31y35=0f
x32y35=0f
x33y35=0f
x34y35=0f
x35y35=0f
x36y35=0f
x37y35=0f
x38y35=0f
x39y35=0f
x40y35=0f
x41y35=ed
x42y35=00
x43y35=eb
x44y35=bb
x45y35=ff
x46y35=e6
x47y35=e0
x48y35=e0
x49y35=e6
x50y35=e0
x51y35=e6
x52y35=e6
x53y35=e0
x54y35=fd
x55y35=8a
x56y35=ee
x57y35=e8
x58y35=f1
x59y35=e6
x60y35=e0
x61y35=e0
x62y35=e6
x63y35=e0
x64y35=e0
x65y35=e6
x66y35=e0
x67y35=e0
x68y35=e6
x69y35=e0
x70y35=e0
x71y35=e0
x72y35=e6
x73y35=ff
x74y35=b5
x75y35=e9
x76y35=00
x77y35=fb
x78y35=0f
x79y35=0f
x80y35=f2
x81y35=00
x82y35=00
x83y35=00
x84y35=00
x85y35=00
x86y35=e8
x87y35=fe
x88y35=0f
x89y35=0f
x90y35=0f
x91y35=0f
x92y35=0f
x93y35=0f
x94y35=0f
x95y35=0f
x96y35=0f
x97y35=0f
x98y35=0f
x99y35=0f
x100y35=0f
x101y35=0f
x102y35=0f
x103y35=0f
x104y35=0f
x105y35=0f
x106y35=0f
x107y35=0f
x108y35=0f
x109y35=0f
x110y35=0f
x111y35=0f
x112y35=0f
x1y36=e0
x2y36=e6
x3y36=ee
x4y36=00
x5y36=00
x6y36=ea
x7y36=f2
x8y36=f9
x9y36=ff
x10y36=0f
x11y36=0f
x12y36=0f
x13y36=0f
x14y36=0f
x15y36=0f
x16y36=0f
x17y36=0f
x18y36=0f
x19y36=0f
x20y36=0f
x21y36=0f
x22y36=0f
x23y36=0f
x24y36=0f
x25y36=0f
x26y36=0f
x27y36=0f
x28y36=0f
x29y36=0f
x30y36=0f
x31y36=0f
x32y36=0f
x33y36=0f
x34y36=0f
x35y36=0f
x36y36=0f
x37y36=0f
x38y36=0f
x39y36=fe
x40y36=3b
x41y36=00
x42y36=ea
x43y36=bb
x44y36=ff
x45y36=e0
x46y36=e0
x47y36=e6
x48y36=e0
x49y36=e6
x50y36=e0
x51y36=e0
x52y36=e0
x53y36=e6
x54y36=e0
x55y36=e6
x56y36=e6
x57y36=bb
x58y36=f3
x59y36=8a
x60y36=e6
x61y36=e0
x62y36=e0
x63y36=e6
x64y36=e0
x65y36=e0
x66y36=e6
x67y36=e0
x68y36=e6
x69y36=e0
x70y36=e6
x71y36=e0
x72y36=e0
x73y36=e0
x74y36=e0
x75y36=e9
x76y36=00
x77y36=fd
x78y36=0f
x79y36=0f
x80y36=ec
x81y36=00
x82y36=00
x83y36=00
x84y36=00
x85y36=00
x86y36=ec
x87y36=0f
x88y36=0f
x89y36=0f
x90y36=0f
x91y36=0f
x92y36=0f
x93y36=0f
x94y36=0f
x95y36=0f
x96y36=0f
x97y36=0f
x98y36=0f
x99y36=0f
x100y36=0f
x101y36=0f
x102y36=0f
x103y36=0f
x104y36=0f
x105y36=0f
x106y36=0f
x107y36=0f
x108y36=0f
x109y36=0f
x110y36=0f
x111y36=0f
x112y36=0f
x1y37=e0
x2y37=e0
x3y37=e6
x4y37=f5
x5y37=eb
x6y37=00
x7y37=00
x8y37=00
x9y37=e9
x10y37=ee
x11y37=f4
x12y37=f7
x13y37=fc
x14y37=fe
x15y37=ff
x16y37=0f
x17y37=0f
x18y37=0f
x19y37=0f
x20y37=0f
x21y37=0f
x22y37=0f
x23y37=0f
x24y37=0f
x25y37=0f
x26y37=0f
x27y37=0f
x28y37=0f
x29y37=0f
x30y37=0f
x31y37=0f
x32y37=0f
x33y37=0f
x34y37=ff
x35y37=bc
x36y37=91
x37y37=f4
x38y37=ee
x39y37=e9
x40y37=00
x41y37=00
x42y37=f7
x43y37=e6
x44y37=e0
x45y37=e6
x46y37=e0
x47y37=e0
x48y37=e6
x49y37=e0
x50y37=e0
x51y37=e6
x52y37=e0
x53y37=e0
x54y37=e6
x55y37=e0
x56y37=e0
x57y37=e0
x58y37=e6
x59y37=e0
x60y37=e0
x61y37=e6
x62y37=e0
x63y37=e0
x64y37=e6
x65y37=e0
x66y37=e0
x67y37=e6
x68y37=e0
x69y37=e0
x70y37=e6
x71y37=e0
x72y37=e6
x73y37=e6
x74y37=bb
x75y37=e8
x76y37=e8
x77y37=fe
x78y37=0f
x79y37=ff
x80y37=e9
x81y37=00
x82y37=00
x83y37=00
x84y37=00
x85y37=00
x86y37=f2
x87y37=0f
x88y37=0f
x89y37=0f
x90y37=0f
x91y37=0f
x92y37=0f
x93y37=0f
x94y37=0f
x95y37=0f
x96y37=0f
x97y37=0f
x98y37=0f
x99y37=0f
x100y37=0f
x101y37=0f
x102y37=0f
x103y37=0f
x104y37=0f
x105y37=0f
x106y37=0f
x107y37=0f
x108y37=0f
x109y37=0f
x110y37=0f
x111y37=0f
x112y37=0f
x1y38=e6
x2y38=e0
x3y38=e0
x4y38=e6
x5y38=e0
x6y38=f7
x7y38=08
x8y38=ea
x9y38=00
x10y38=00
x11y38=00
x12y38=00
x13y38=00
x14y38=e8
x15y38=eb
x16y38=ed
x17y38=ef
x18y38=f1
x19y38=f3
x20y38=f4
x21y38=f6
x22y38=f6
x23y38=f7
x24y38=f7
x25y38=f7
x26y38=f6
x27y38=f6
x28y38=f5
x29y38=f4
x30y38=f2
x31y38=f0
x32y38=ee
x33y38=ec
x34y38=e9
x35y38=00
x36y38=00
x37y38=00
x38y38=00
x39y38=00
x40y38=e8
x41y38=ee
x42y38=e6
x43y38=e0
x44y38=e0
x45y38=e0
x46y38=e6
x47y38=e0
x48y38=e0
x49y38=e6
x50y38=e0
x51y38=e0
x52y38=e6
x53y38=e0
x54y38=e0
x55y38=e6
x56y38=e0
x57y38=e6
x58y38=e0
x59y38=e6
x60y38=e0
x61y38=e0
x62y38=e6
x63y38=e0
x64y38=e6
x65y38=e0
x66y38=e6
x67y38=e0
x68y38=e0
x69y38=e6
x70y38=e0
x71y38=e0
x72y38=e0
x73y38=e6
x74y38=b5
x75y38=00
x76y38=e9
x77y38=ff
x78y38=0f
x79y38=bc
x80y38=00
x81y38=00
x82y38=00
x83y38=00
x84y38=00
x85y38=00
x86y38=fa
x87y38=0f
x88y38=0f
x89y38=0f
x90y38=0f
x91y38=0f
x92y38=0f
x93y38=0f
x94y38=0f
x95y38=0f
x96y38=0f
x97y38=0f
x98y38=0f
x99y38=0f
x100y38=0f
x101y38=0f
x102y38=0f
x103y38=0f
x104y38=0f
x105y38=0f
x106y38=0f
x107y38=0f
x108y38=0f
x109y38=0f
x110y38=0f
x111y38=0f
x112y38=0f
x1y39=e0
x2y39=e6
x3y39=e0
x4y39=e0
x5y39=e6
x6y39=e6
x7y39=e6
x8y39=e0
x9y39=b5
x10y39=f5
x11y39=f1
x12y39=ed
x13y39=ea
x14y39=e8
x15y39=00
x16y39=00
x17y39=00
x18y39=00
x19y39=00
x20y39=00
x21y39=00
x22y39=00
x23y39=00
x24y39=00
x25y39=00
x26y39=00
x27y39=00
x28y39=00
x29y39=00
x30y39=00
x31y39=00
x32y39=00
x33y39=00
x34y39=00
x35y39=e8
x36y39=eb
x37y39=ef
x38y39=f4
x39y39=bb
x40y39=f3
x41y39=b4
x42y39=ff
x43y39=e0
x44y39=e6
x45y39=e0
x46y39=e0
x47y39=e6
x48y39=e0
x49y39=e0
x50y39=e6
x51y39=e0
x52y39=e0
x53y39=e6
x54y39=e0
x55y39=e0
x56y39=e6
x57y39=e0
x58y39=e0
x59y39=e0
x60y39=e6
x61y39=e0
x62y39=e6
x63y39=e0
x64y39=e0
x65y39=e6
x66y39=e0
x67y39=e0
x68y39=e6
x69y39=e0
x70y39=e6
x71y39=e0
x72y39=e6
x73y39=e0
x74y39=bb
x75y39=00
x76y39=ea
x77y39=ff
x78y39=0f
x79y39=fb
x80y39=00
x81y39=00
x82y39=00
x83y39=00
x84y39=00
x85y39=eb
x86y39=0f
x87y39=0f
x88y39=0f
x89y39=0f
x90y39=0f
x91y39=0f
x92y39=0f
x93y39=0f
x94y39=0f
x95y39=0f
x96y39=0f
x97y39=0f
x98y39=0f
x99y39=0f
x100y39=0f
x101y39=0f
x102y39=0f
x103y39=0f
x104y39=0f
x105y39=0f
x106y39=0f
x107y39=0f
x108y39=0f
x109y39=0f
x110y39=0f
x111y39=0f
x112y39=0f
x1y40=e0
x2y40=e0
x3y40=e6
x4y40=e0
x5y40=e0
x6y40=e0
x7y40=e0
x8y40=e6
x9y40=e0
x10y40=e6
x11y40=e6
x12y40=e0
x13y40=e0
x14y40=bb
x15y40=b5
x16y40=f7
x17y40=8a
x18y40=f3
x19y40=f2
x20y40=f1
x21y40=08
x22y40=ef
x23y40=ef
x24y40=ee
x25y40=ee
x26y40=ef
x27y40=ef
x28y40=08
x29y40=3b
x30y40=5f
x31y40=f3
x32y40=f5
x33y40=90
x34y40=b5
x35y40=fc
x36y40=e0
x37y40=e6
x38y40=e6
x39y40=e0
x40y40=bc
x41y40=e0
x42y40=e6
x43y40=e0
x44y40=e0
x45y40=e6
x46y40=e0
x47y40=e6
x48y40=e0
x49y40=e6
x50y40=e0
x51y40=e6
x52y40=e0
x53y40=e6
x54y40=e0
x55y40=e6
x56y40=e0
x57y40=e0
x58y40=e6
x59y40=e0
x60y40=e6
x61y40=e0
x62y40=e0
x63y40=e6
x64y40=e0
x65y40=e0
x66y40=e6
x67y40=e0
x68y40=e0
x69y40=e6
x70y40=e0
x71y40=e0
x72y40=e0
x73y40=e6
x74y40=b5
x75y40=00
x76y40=ea
x77y40=ff
x78y40=0f
x79y40=fc
x80y40=00
x81y40=00
x82y40=00
x83y40=e8
x84y40=00
x85y40=f7
x86y40=0f
x87y40=0f
x88y40=0f
x89y40=0f
x90y40=0f
x91y40=0f
x92y40=0f
x93y40=0f
x94y40=0f
x95y40=0f
x96y40=0f
x97y40=0f
x98y40=0f
x99y40=0f
x100y40=0f
x101y40=0f
x102y40=0f
x103y40=0f
x104y40=0f
x105y40=0f
x106y40=0f
x107y40=0f
x108y40=0f
x109y40=0f
x110y40=0f
x111y40=0f
x112y40=0f
x1y41=e6
x2y41=e0
x3y41=e0
x4y41=e6
x5y41=e0
x6y41=e6
x7y41=e0
x8y41=e0
x9y41=e6
x10y41=e0
x11y41=e0
x12y41=e6
x13y41=e0
x14y41=e6
x15y41=ff
x16y41=e6
x17y41=e6
x18y41=e6
x19y41=e6
x20y41=e6
x21y41=e0
x22y41=e6
x23y41=e0
x24y41=e6
x25y41=e0
x26y41=e6
x27y41=e6
x28y41=e0
x29y41=e6
x30y41=e6
x31y41=e6
x32y41=ff
x33y41=e6
x34y41=e6
x35y41=e0
x36y41=e6
x37y41=e0
x38y41=e0
x39y41=e0
x40y41=e6
x41y41=e0
x42y41=e0
x43y41=e6
x44y41=e0
x45y41=e0
x46y41=e6
x47y41=e0
x48y41=e0
x49y41=e0
x50y41=e6
x51y41=e0
x52y41=e0
x53y41=e0
x54y41=e6
x55y41=e0
x56y41=e0
x57y41=e6
x58y41=e0
x59y41=e6
x60y41=e0
x61y41=e6
x62y41=e0
x63y41=e0
x64y41=e6
x65y41=e0
x66y41=e0
x67y41=e6
x68y41=e0
x69y41=e0
x70y41=e6
x71y41=e0
x72y41=e6
x73y41=e0
x74y41=bb
x75y41=00
x76y41=ea
x77y41=ff
x78y41=0f
x79y41=ff
x80y41=e9
x81y41=00
x82y41=e8
x83y41=00
x84y41=ed
x85y41=0f
x86y41=0f
x87y41=0f
x88y41=0f
x89y41=0f
x90y41=0f
x91y41=0f
x92y41=0f
x93y41=0f
x94y41=0f
x95y41=0f
x96y41=0f
x97y41=0f
x98y41=0f
x99y41=0f
x100y41=0f
x101y41=0f
x102y41=0f
x103y41=0f
x104y41=0f
x105y41=0f
x106y41=0f
x107y41=0f
x108y41=0f
x109y41=0f
x110y41=0f
x111y41=0f
x112y41=0f
x1y42=e0
x2y42=e6
x3y42=e0
x4y42=e0
x5y42=e6
x6y42=e0
x7y42=e0
x8y42=e6
x9y42=e0
x10y42=e0
x11y42=e6
x12y42=e0
x13y42=e0
x14y42=e0
x15y42=e0
x16y42=e0
x17y42=e0
x18y42=e0
x19y42=e0
x20y42=e0
x21y42=e6
x22y42=e0
x23y42=e6
x24y42=e0
x25y42=e6
x26y42=e0
x27y42=e0
x28y42=e0
x29y42=e0
x30y42=e0
x31y42=e0
x32y42=e0
x33y42=e0
x34y42=e0
x35y42=e6
x36y42=e0
x37y42=e0
x38y42=e6
x39y42=e0
x40y42=e0
x41y42=e6
x42y42=e0
x43y42=e0
x44y42=e6
x45y42=e0
x46y42=e0
x47y42=e6
x48y42=e0
x49y42=e6
x50y42=e0
x51y42=e0
x52y42=e6
x53y42=e0
x54y42=e0
x55y42=e6
x56y42=e0
x57y42=e0
x58y42=e6
x59y42=e0
x60y42=e0
x61y42=e0
x62y42=e6
x63y42=e0
x64y42=e0
x65y42=e6
x66y42=e0
x67y42=e0
x68y42=e6
x69y42=e0
x70y42=e6
x71y42=e0
x72y42=e0
x73y42=e6
x74y42=b5
x75y42=e8
x76y42=e9
x77y42=fe
x78y42=0f
x79y42=0f
x80y42=f0
x81y42=00
x82y42=00
x83y42=ea
x84y42=fd
x85y42=0f
x86y42=0f
x87y42=0f
x88y42=0f
x89y42=0f
x90y42=0f
x91y42=0f
x92y42=0f
x93y42=0f
x94y42=0f
x95y42=0f
x96y42=0f
x97y42=0f
x98y42=0f
x99y42=0f
x100y42=0f
x101y42=0f
x102y42=0f
x103y42=0f
x104y42=0f
x105y42=0f
x106y42=0f
x107y42=0f
x108y42=0f
x109y42=0f
x110y42=0f
x111y42=0f
x112y42=0f
x1y43=e0
x2y43=e0
x3y43=e6
x4y43=e0
x5y43=e0
x6y43=e6
x7y43=e0
x8y43=e0
x9y43=e6
x10y43=e0
x11y43=e0
x12y43=e6
x13y43=e0
x14y43=e6
x15y43=e0
x16y43=e6
x17y43=e0
x18y43=e6
x19y43=e0
x20y43=e0
x21y43=e0
x22y43=e0
x23y43=e0
x24y43=e0
x25y43=e0
x26y43=e6
x27y43=e0
x28y43=e6
x29y43=e6
x30y43=e6
x31y43=e0
x32y43=e6
x33y43=e0
x34y43=e6
x35y43=e0
x36y43=e0
x37y43=e6
x38y43=e0
x39y43=e6
x40y43=e0
x41y43=e0
x42y43=e6
x43y43=e0
x44y43=e6
x45y43=e0
x46y43=e6
x47y43=e0
x48y43=e6
x49y43=e0
x50y43=e0
x51y43=e6
x52y43=e0
x53y43=e6
x54y43=e0
x55y43=e0
x56y43=e6
x57y43=e0
x58y43=e0
x59y43=e6
x60y43=e0
x61y43=e6
x62y43=e0
x63y43=e6
x64y43=e0
x65y43=e0
x66y43=e6
x67y43=e0
x68y43=e6
x69y43=e0
x70y43=e0
x71y43=e6
x72y43=e0
x73y43=e6
x74y43=bc
x75y43=e9
x76y43=00
x77y43=fe
x78y43=0f
x79y43=0f
x80y43=fe
x81y43=f1
x82y43=f1
x83y43=fd
x84y43=0f
x85y43=0f
x86y43=0f
x87y43=0f
x88y43=0f
x89y43=0f
x90y43=0f
x91y43=0f
x92y43=0f
x93y43=0f
x94y43=0f
x95y43=0f
x96y43=0f
x97y43=0f
x98y43=0f
x99y43=0f
x100y43=0f
x101y43=0f
x102y43=0f
x103y43=0f
x104y43=0f
x105y43=0f
x106y43=0f
x107y43=0f
x108y43=0f
x109y43=0f
x110y43=0f
x111y43=0f
x112y43=0f
x1y44=e6
x2y44=e0
x3y44=e0
x4y44=e6
x5y44=e0
x6y44=e0
x7y44=e6
x8y44=e0
x9y44=e0
x10y44=e6
x11y44=e0
x12y44=e0
x13y44=e6
x14y44=e0
x15y44=e6
x16y44=e0
x17y44=e0
x18y44=e0
x19y44=e6
x20y44=e6
x21y44=e6
x22y44=e6
x23y44=e6
x24y44=e6
x25y44=e6
x26y44=e0
x27y44=bb
x28y44=b5
x29y44=f6
x30y44=b5
x31y44=e6
x32y44=e0
x33y44=e0
x34y44=e0
x35y44=e6
x36y44=e0
x37y44=e0
x38y44=e6
x39y44=e0
x40y44=e6
x41y44=e0
x42y44=e0
x43y44=e6
x44y44=e0
x45y44=e0
x46y44=e0
x47y44=e0
x48y44=e0
x49y44=e6
x50y44=e0
x51y44=e0
x52y44=e6
x53y44=e0
x54y44=e6
x55y44=e0
x56y44=e0
x57y44=e6
x58y44=e0
x59y44=e0
x60y44=e6
x61y44=e0
x62y44=e0
x63y44=e0
x64y44=e6
x65y44=e0
x66y44=e6
x67y44=e0
x68y44=e0
x69y44=e6
x70y44=e0
x71y44=e0
x72y44=e6
x73y44=e0
x74y44=e0
x75y44=ea
x76y44=00
x77y44=fb
x78y44=0f
x79y44=0f
x80y44=0f
x81y44=0f
x82y44=0f
x83y44=0f
x84y44=0f
x85y44=0f
x86y44=0f
x87y44=0f
x88y44=0f
x89y44=0f
x90y44=0f
x91y44=0f
x92y44=0f
x93y44=0f
x94y44=0f
x95y44=0f
x96y44=0f
x97y44=0f
x98y44=0f
x99y44=0f
x100y44=0f
x101y44=0f
x102y44=0f
x103y44=0f
x104y44=0f
x105y44=0f
x106y44=0f
x107y44=0f
x108y44=0f
x109y44=0f
x110y44=0f
x111y44=0f
x112y44=0f
x1y45=e0
x2y45=e6
x3y45=e0
x4y45=e6
x5y45=e0
x6y45=e6
x7y45=e0
x8y45=e6
x9y45=e0
x10y45=e0
x11y45=e6
x12y45=e0
x13y45=e0
x14y45=e0
x15y45=e6
x16y45=e6
x17y45=e6
x18y45=e6
x19y45=e0
x20y45=b5
x21y45=f9
x22y45=8a
x23y45=f3
x24y45=08
x25y45=ec
x26y45=ea
x27y45=00
x28y45=e8
x29y45=f0
x30y45=bb
x31y45=e0
x32y45=e6
x33y45=e0
x34y45=e6
x35y45=e0
x36y45=e6
x37y45=e0
x38y45=e0
x39y45=e0
x40y45=e0
x41y45=e6
x42y45=e0
x43y45=e0
x44y45=e6
x45y45=e0
x46y45=e6
x47y45=e6
x48y45=e0
x49y45=e0
x50y45=e6
x51y45=e0
x52y45=e0
x53y45=e0
x54y45=e0
x55y45=e6
x56y45=e0
x57y45=e0
x58y45=e6
x59y45=e0
x60y45=e0
x61y45=e6
x62y45=e0
x63y45=e6
x64y45=e0
x65y45=e0
x66y45=e0
x67y45=e6
x68y45=e0
x69y45=e0
x70y45=e6
x71y45=e0
x72y45=e0
x73y45=e6
x74y45=e0
x75y45=ed
x76y45=00
x77y45=f8
x78y45=0f
x79y45=0f
x80y45=0f
x81y45=0f
x82y45=0f
x83y45=0f
x84y45=0f
x85y45=0f
x86y45=0f
x87y45=0f
x88y45=0f
x89y45=0f
x90y45=0f
x91y45=0f
x92y45=0f
x93y45=0f
x94y45=0f
x95y45=0f
x96y45=0f
x97y45=0f
x98y45=0f
x99y45=0f
x100y45=0f
x101y45=0f
x102y45=0f
x103y45=0f
x104y45=0f
x105y45=0f
x106y45=0f
x107y45=0f
x108y45=0f
x109y45=0f
x110y45=0f
x111y45=0f
x112y45=0f
x1y46=e0
x2y46=e0
x3y46=e6
x4y46=e0
x5y46=e0
x6y46=e0
x7y46=e6
x8y46=e0
x9y46=e6
x10y46=e0
x11y46=e0
x12y46=e6
x13y46=e6
x14y46=e6
x15y46=fc
x16y46=8a
x17y46=f3
x18y46=ee
x19y46=ea
x20y46=e8
x21y46=00
x22y46=00
x23y46=00
x24y46=00
x25y46=e8
x26y46=ec
x27y46=f4
x28y46=bb
x29y46=ff
x30y46=e6
x31y46=e0
x32y46=e0
x33y46=e6
x34y46=e0
x35y46=e0
x36y46=e0
x37y46=e6
x38y46=e0
x39y46=e6
x40y46=e0
x41y46=e6
x42y46=e0
x43y46=e6
x44y46=e0
x45y46=e6
x46y46=e0
x47y46=e0
x48y46=e6
x49y46=e0
x50y46=e0
x51y46=e6
x52y46=e0
x53y46=e6
x54y46=e0
x55y46=e6
x56y46=e0
x57y46=e6
x58y46=e0
x59y46=e6
x60y46=e0
x61y46=e0
x62y46=e6
x63y46=e0
x64y46=e0
x65y46=e6
x66y46=e0
x67y46=e0
x68y46=e6
x69y46=e0
x70y46=e0
x71y46=e6
x72y46=e0
x73y46=e0
x74y46=e6
x75y46=3b
x76y46=00
x77y46=f3
x78y46=0f
x79y46=0f
x80y46=0f
x81y46=0f
x82y46=0f
x83y46=0f
x84y46=0f
x85y46=0f
x86y46=0f
x87y46=0f
x88y46=0f
x89y46=0f
x90y46=0f
x91y46=0f
x92y46=0f
x93y46=0f
x94y46=0f
x95y46=0f
x96y46=0f
x97y46=0f
x98y46=0f
x99y46=0f
x100y46=0f
x101y46=0f
x102y46=0f
x103y46=0f
x104y46=0f
x105y46=0f
x106y46=0f
x107y46=0f
x108y46=0f
x109y46=0f
x110y46=0f
x111y46=0f
x112y46=0f
x1y47=e6
x2y47=e0
x3y47=e0
x4y47=e6
x5y47=e0
x6y47=e6
x7y47=e0
x8y47=e0
x9y47=e0
x10y47=e6
x11y47=e6
x12y47=e0
x13y47=f6
x14y47=ee
x15y47=e9
x16y47=00
x17y47=00
x18y47=00
x19y47=00
x20y47=e9
x21y47=ec
x22y47=3b
x23y47=66
x24y47=b5
x25y47=bb
x26y47=e6
x27y47=e0
x28y47=e6
x29y47=e0
x30y47=e0
x31y47=e6
x32y47=e0
x33y47=e0
x34y47=e6
x35y47=e0
x36y47=e6
x37y47=e0
x38y47=e6
x39y47=e0
x40y47=e6
x41y47=e0
x42y47=e0
x43y47=e0
x44y47=e0
x45y47=e0
x46y47=e6
x47y47=e0
x48y47=e0
x49y47=e6
x50y47=e0
x51y47=e6
x52y47=e0
x53y47=e6
x54y47=e0
x55y47=e0
x56y47=e6
x57y47=e0
x58y47=e0
x59y47=e0
x60y47=e6
x61y47=e0
x62y47=e0
x63y47=e6
x64y47=e0
x65y47=e6
x66y47=e0
x67y47=e6
x68y47=e0
x69y47=e6
x70y47=e0
x71y47=e0
x72y47=e6
x73y47=e0
x74y47=e6
x75y47=8a
x76y47=00
x77y47=ed
x78y47=0f
x79y47=0f
x80y47=0f
x81y47=0f
x82y47=0f
x83y47=0f
x84y47=0f
x85y47=0f
x86y47=0f
x87y47=0f
x88y47=0f
x89y47=0f
x90y47=0f
x91y47=0f
x92y47=0f
x93y47=0f
x94y47=0f
x95y47=0f
x96y47=0f
x97y47=0f
x98y47=0f
x99y47=0f
x100y47=0f
x101y47=0f
x102y47=0f
x103y47=0f
x104y47=0f
x105y47=0f
x106y47=0f
x107y47=0f
x108y47=0f
x109y47=0f
x110y47=0f
x111y47=0f
x112y47=0f
x1y48=e0
x2y48=e6
x3y48=e0
x4y48=e0
x5y48=e6
x6y48=e0
x7y48=e0
x8y48=e6
x9y48=e0
x10y48=e6
x11y48=f7
x12y48=eb
x13y48=00
x14y48=00
x15y48=00
x16y48=eb
x17y48=3b
x18y48=8a
x19y48=fa
x20y48=df
x21y48=e0
x22y48=e6
x23y48=e6
x24y48=e6
x25y48=e0
x26y48=e0
x27y48=e0
x28y48=e0
x29y48=e6
x30y48=e0
x31y48=e0
x32y48=e6
x33y48=e0
x34y48=e0
x35y48=e6
x36y48=e0
x37y48=e0
x38y48=e0
x39y48=e6
x40y48=e0
x41y48=e0
x42y48=e6
x43y48=e0
x44y48=e6
x45y48=e0
x46y48=e0
x47y48=e6
x48y48=e0
x49y48=e6
x50y48=e0
x51y48=e0
x52y48=e6
x53y48=e0
x54y48=e6
x55y48=e0
x56y48=e0
x57y48=e6
x58y48=e0
x59y48=e6
x60y48=e0
x61y48=e6
x62y48=e0
x63y48=e0
x64y48=e6
x65y48=e0
x66y48=e0
x67y48=e6
x68y48=e0
x69y48=e0
x70y48=e6
x71y48=e0
x72y48=e0
x73y48=e6
x74y48=e0
x75y48=bb
x76y48=e8
x77y48=e8
x78y48=bc
x79y48=0f
x80y48=0f
x81y48=0f
x82y48=0f
x83y48=0f
x84y48=0f
x85y48=0f
x86y48=0f
x87y48=0f
x88y48=0f
x89y48=0f
x90y48=0f
x91y48=0f
x92y48=0f
x93y48=0f
x94y48=0f
x95y48=0f
x96y48=0f
x97y48=0f
x98y48=0f
x99y48=0f
x100y48=0f
x101y48=0f
x102y48=0f
x103y48=0f
x104y48=0f
x105y48=0f
x106y48=0f
x107y48=0f
x108y48=0f
x109y48=0f
x110y48=0f
x111y48=0f
x112y48=0f
x1y49=e0
x2y49=e0
x3y49=e6
x4y49=e0
x5y49=e0
x6y49=e6
x7y49=e0
x8y49=e0
x9y49=e6
x10y49=8a
x11y49=e8
x12y49=00
x13y49=00
x14y49=08
x15y49=07
x16y49=e0
x17y49=e6
x18y49=e6
x19y49=e0
x20y49=e6
x21y49=e0
x22y49=e0
x23y49=e0
x24y49=e0
x25y49=e6
x26y49=e0
x27y49=e6
x28y49=e0
x29y49=e0
x30y49=e6
x31y49=e0
x32y49=e0
x33y49=e6
x34y49=e0
x35y49=e0
x36y49=e6
x37y49=e0
x38y49=e6
x39y49=e0
x40y49=e0
x41y49=e6
x42y49=e0
x43y49=e6
x44y49=e0
x45y49=e6
x46y49=e0
x47y49=e0
x48y49=e6
x49y49=e0
x50y49=e0
x51y49=e6
x52y49=e0
x53y49=e0
x54y49=e0
x55y49=e6
x56y49=e0
x57y49=e0
x58y49=e6
x59y49=e0
x60y49=e0
x61y49=e0
x62y49=e6
x63y49=e0
x64y49=e0
x65y49=e6
x66y49=e0
x67y49=e0
x68y49=e6
x69y49=e0
x70y49=e0
x71y49=e6
x72y49=e0
x73y49=e0
x74y49=e6
x75y49=e0
x76y49=ee
x77y49=00
x78y49=ec
x79y49=fb
x80y49=0f
x81y49=0f
x82y49=0f
x83y49=0f
x84y49=0f
x85y49=0f
x86y49=0f
x87y49=0f
x88y49=0f
x89y49=0f
x90y49=0f
x91y49=0f
x92y49=0f
x93y49=0f
x94y49=0f
x95y49=0f
x96y49=0f
x97y49=0f
x98y49=0f
x99y49=0f
x100y49=0f
x101y49=0f
x102y49=0f
x103y49=0f
x104y49=0f
x105y49=0f
x106y49=0f
x107y49=0f
x108y49=0f
x109y49=0f
x110y49=0f
x111y49=0f
x112y49=0f
x1y50=e6
x2y50=e0
x3y50=e0
x4y50=e6
x5y50=e0
x6y50=e0
x7y50=e6
x8y50=e0
x9y50=e0
x10y50=eb
x11y50=00
x12y50=ec
x13y50=b5
x14y50=e6
x15y50=e6
x16y50=e0
x17y50=e0
x18y50=e0
x19y50=e0
x20y50=e0
x21y50=e6
x22y50=e0
x23y50=e6
x24y50=e0
x25y50=e0
x26y50=e6
x27y50=e0
x28y50=e6
x29y50=e0
x30y50=e0
x31y50=e6
x32y50=e0
x33y50=e0
x34y50=e6
x35y50=e0
x36y50=e0
x37y50=e6
x38y50=e0
x39y50=e6
x40y50=e0
x41y50=e0
x42y50=e6
x43y50=e0
x44y50=e0
x45y50=e0
x46y50=e6
x47y50=e0
x48y50=e0
x49y50=e6
x50y50=e0
x51y50=e0
x52y50=e6
x53y50=e0
x54y50=e6
x55y50=e0
x56y50=e6
x57y50=e0
x58y50=e0
x59y50=e6
x60y50=e0
x61y50=e6
x62y50=e0
x63y50=e6
x64y50=e0
x65y50=e0
x66y50=e6
x67y50=e0
x68y50=e0
x69y50=e6
x70y50=e0
x71y50=e6
x72y50=e0
x73y50=e6
x74y50=e0
x75y50=e6
x76y50=b5
x77y50=ea
x78y50=00
x79y50=00
x80y50=f2
x81y50=ff
x82y50=0f
x83y50=0f
x84y50=0f
x85y50=0f
x86y50=0f
x87y50=0f
x88y50=0f
x89y50=0f
x90y50=0f
x91y50=0f
x92y50=0f
x93y50=0f
x94y50=0f
x95y50=0f
x96y50=0f
x97y50=0f
x98y50=0f
x99y50=0f
x100y50=0f
x101y50=0f
x102y50=0f
x103y50=0f
x104y50=0f
x105y50=0f
x106y50=0f
x107y50=0f
x108y50=0f
x109y50=0f
x110y50=0f
x111y50=0f
x112y50=0f
x1y51=e0
x2y51=e6
x3y51=e0
x4y51=e6
x5y51=e0
x6y51=e6
x7y51=e0
x8y51=e6
x9y51=91
x10y51=e8
x11y51=e8
x12y51=3b
x13y51=90
x14y51=b5
x15y51=fc
x16y51=e0
x17y51=e6
x18y51=e6
x19y51=e6
x20y51=e6
x21y51=e0
x22y51=e0
x23y51=e0
x24y51=e6
x25y51=e0
x26y51=e0
x27y51=e6
x28y51=e0
x29y51=e6
x30y51=e0
x31y51=e0
x32y51=e6
x33y51=e0
x34y51=e0
x35y51=e6
x36y51=e0
x37y51=e0
x38y51=e6
x39y51=e0
x40y51=e6
x41y51=e0
x42y51=e0
x43y51=e6
x44y51=e0
x45y51=e6
x46y51=e0
x47y51=e6
x48y51=e0
x49y51=e0
x50y51=e6
x51y51=e0
x52y51=e6
x53y51=e0
x54y51=e0
x55y51=e6
x56y51=e0
x57y51=e6
x58y51=e0
x59y51=e0
x60y51=e6
x61y51=e0
x62y51=e0
x63y51=e6
x64y51=e0
x65y51=e6
x66y51=e0
x67y51=e6
x68y51=e0
x69y51=e6
x70y51=e0
x71y51=e0
x72y51=e6
x73y51=e0
x74y51=e0
x75y51=e0
x76y51=e6
x77y51=fc
x78y51=08
x79y51=00
x80y51=00
x81y51=ea
x82y51=f6
x83y51=ff
x84y51=0f
x85y51=0f
x86y51=0f
x87y51=0f
x88y51=0f
x89y51=0f
x90y51=0f
x91y51=0f
x92y51=0f
x93y51=0f
x94y51=0f
x95y51=0f
x96y51=0f
x97y51=0f
x98y51=0f
x99y51=0f
x100y51=0f
x101y51=0f
x102y51=0f
x103y51=0f
x104y51=0f
x105y51=0f
x106y51=0f
x107y51=0f
x108y51=0f
x109y51=0f
x110y51=0f
x111y51=0f
x112y51=0f
x1y52=e0
x2y52=e0
x3y52=e6
x4y52=e0
x5y52=e0
x6y52=e0
x7y52=e6
x8y52=e0
x9y52=b5
x10y52=00
x11y52=00
x12y52=00
x13y52=00
x14y52=00
x15y52=e8
x16y52=ea
x17y52=ee
x18y52=f2
x19y52=f7
x20y52=b5
x21y52=e6
x22y52=e6
x23y52=e6
x24y52=e6
x25y52=e0
x26y52=e0
x27y52=e0
x28y52=e0
x29y52=e0
x30y52=e6
x31y52=e0
x32y52=e0
x33y52=e6
x34y52=e0
x35y52=e6
x36y52=e0
x37y52=e6
x38y52=e0
x39y52=e0
x40y52=e0
x41y52=e6
x42y52=e0
x43y52=e0
x44y52=e6
x45y52=e0
x46y52=e0
x47y52=e0
x48y52=e6
x49y52=e0
x50y52=e6
x51y52=e0
x52y52=e0
x53y52=e6
x54y52=e0
x55y52=e0
x56y52=e0
x57y52=e0
x58y52=e6
x59y52=e0
x60y52=e0
x61y52=e6
x62y52=e0
x63y52=e0
x64y52=e6
x65y52=e0
x66y52=e0
x67y52=e0
x68y52=e6
x69y52=e0
x70y52=e0
x71y52=e6
x72y52=e0
x73y52=e0
x74y52=e6
x75y52=e0
x76y52=e0
x77y52=e6
x78y52=e6
x79y52=f7
x80y52=ec
x81y52=00
x82y52=00
x83y52=ec
x84y52=f7
x85y52=0f
x86y52=0f
x87y52=0f
x88y52=0f
x89y52=0f
x90y52=0f
x91y52=0f
x92y52=0f
x93y52=0f
x94y52=0f
x95y52=0f
x96y52=0f
x97y52=0f
x98y52=0f
x99y52=0f
x100y52=0f
x101y52=0f
x102y52=0f
x103y52=0f
x104y52=0f
x105y52=0f
x106y52=0f
x107y52=0f
x108y52=0f
x109y52=0f
x110y52=0f
x111y52=0f
x112y52=0f
x1y53=e6
x2y53=e0
x3y53=e0
x4y53=e6
x5y53=e0
x6y53=e6
x7y53=e0
x8y53=e6
x9y53=bb
x10y53=e9
x11y53=00
x12y53=e9
x13y53=e9
x14y53=e8
x15y53=00
x16y53=00
x17y53=00
x18y53=00
x19y53=e8
x20y53=00
x21y53=ea
x22y53=ef
x23y53=66
x24y53=b5
x25y53=e0
x26y53=e6
x27y53=e6
x28y53=e6
x29y53=e0
x30y53=e0
x31y53=e6
x32y53=e0
x33y53=e6
x34y53=e0
x35y53=e0
x36y53=e6
x37y53=e0
x38y53=e0
x39y53=e6
x40y53=e0
x41y53=e0
x42y53=e6
x43y53=e0
x44y53=e0
x45y53=e6
x46y53=e0
x47y53=e6
x48y53=e0
x49y53=e0
x50y53=e0
x51y53=e6
x52y53=e0
x53y53=e0
x54y53=e6
x55y53=e0
x56y53=e6
x57y53=e0
x58y53=e0
x59y53=e6
x60y53=e0
x61y53=e0
x62y53=e6
x63y53=e0
x64y53=e0
x65y53=e6
x66y53=e0
x67y53=e6
x68y53=e0
x69y53=e0
x70y53=e6
x71y53=e0
x72y53=e6
x73y53=e0
x74y53=e0
x75y53=e6
x76y53=e0
x77y53=e0
x78y53=e0
x79y53=e6
x80y53=e0
x81y53=f5
x82y53=ea
x83y53=00
x84y53=00
x85y53=ec
x86y53=f8
x87y53=0f
x88y53=0f
x89y53=0f
x90y53=0f
x91y53=0f
x92y53=0f
x93y53=0f
x94y53=0f
x95y53=0f
x96y53=0f
x97y53=0f
x98y53=0f
x99y53=0f
x100y53=0f
x101y53=0f
x102y53=0f
x103y53=0f
x104y53=0f
x105y53=0f
x106y53=0f
x107y53=0f
x108y53=0f
x109y53=0f
x110y53=0f
x111y53=0f
x112y53=0f
x1y54=e0
x2y54=e6
x3y54=e0
x4y54=e0
x5y54=e6
x6y54=e0
x7y54=e0
x8y54=e0
x9y54=e6
x10y54=ed
x11y54=00
x12y54=eb
x13y54=ec
x14y54=ec
x15y54=ec
x16y54=eb
x17y54=eb
x18y54=ea
x19y54=e8
x20y54=e8
x21y54=00
x22y54=00
x23y54=00
x24y54=00
x25y54=ea
x26y54=08
x27y54=8a
x28y54=bb
x29y54=e6
x30y54=e6
x31y54=e0
x32y54=e6
x33y54=e0
x34y54=e0
x35y54=e6
x36y54=e0
x37y54=e0
x38y54=e6
x39y54=e0
x40y54=e6
x41y54=e0
x42y54=e0
x43y54=e6
x44y54=e0
x45y54=e0
x46y54=e6
x47y54=e0
x48y54=e0
x49y54=e6
x50y54=e0
x51y54=e6
x52y54=e0
x53y54=e6
x54y54=e0
x55y54=e6
x56y54=e0
x57y54=e6
x58y54=e0
x59y54=e6
x60y54=e0
x61y54=e6
x62y54=e0
x63y54=e6
x64y54=e0
x65y54=e0
x66y54=e6
x67y54=e0
x68y54=e0
x69y54=e6
x70y54=e0
x71y54=e0
x72y54=e0
x73y54=e6
x74y54=e0
x75y54=e6
x76y54=e0
x77y54=e6
x78y54=e0
x79y54=e0
x80y54=e6
x81y54=e6
x82y54=e0
x83y54=f3
x84y54=ea
x85y54=00
x86y54=00
x87y54=ec
x88y54=f7
x89y54=ff
x90y54=0f
x91y54=0f
x92y54=0f
x93y54=0f
x94y54=0f
x95y54=0f
x96y54=0f
x97y54=0f
x98y54=0f
x99y54=0f
x100y54=0f
x101y54=0f
x102y54=0f
x103y54=0f
x104y54=0f
x105y54=0f
x106y54=0f
x107y54=0f
x108y54=0f
x109y54=0f
x110y54=0f
x111y54=0f
x112y54=0f
x1y55=e0
x2y55=e0
x3y55=e6
x4y55=e0
x5y55=e0
x6y55=e6
x7y55=e0
x8y55=e6
x9y55=ff
x10y55=65
x11y55=00
x12y55=ea
x13y55=ed
x14y55=34
x15y55=ed
x16y55=ec
x17y55=ec
x18y55=ec
x19y55=ed
x20y55=ec
x21y55=eb
x22y55=ea
x23y55=ea
x24y55=e8
x25y55=00
x26y55=00
x27y55=00
x28y55=e8
x29y55=ee
x30y55=66
x31y55=bb
x32y55=e0
x33y55=e6
x34y55=e6
x35y55=e0
x36y55=e0
x37y55=e6
x38y55=e0
x39y55=e0
x40y55=e0
x41y55=e6
x42y55=e0
x43y55=e6
x44y55=e0
x45y55=e6
x46y55=e0
x47y55=e0
x48y55=e6
x49y55=e0
x50y55=e6
x51y55=e0
x52y55=e0
x53y55=e0
x54y55=e0
x55y55=e0
x56y55=e6
x57y55=e0
x58y55=e0
x59y55=e0
x60y55=e6
x61y55=e0
x62y55=e0
x63y55=e0
x64y55=e6
x65y55=e0
x66y55=e0
x67y55=e6
x68y55=e0
x69y55=e0
x70y55=e6
x71y55=e0
x72y55=e6
x73y55=e0
x74y55=e0
x75y55=e0
x76y55=e6
x77y55=e0
x78y55=e6
x79y55=e0
x80y55=e0
x81y55=e0
x82y55=e6
x83y55=e6
x84y55=fc
x85y55=65
x86y55=e9
x87y55=00
x88y55=00
x89y55=ec
x90y55=f6
x91y55=ff
x92y55=0f
x93y55=0f
x94y55=0f
x95y55=0f
x96y55=0f
x97y55=0f
x98y55=0f
x99y55=0f
x100y55=0f
x101y55=0f
x102y55=0f
x103y55=0f
x104y55=0f
x105y55=0f
x106y55=0f
x107y55=0f
x108y55=0f
x109y55=0f
x110y55=0f
x111y55=0f
x112y55=0f
x1y56=e6
x2y56=e0
x3y56=e0
x4y56=e6
x5y56=e0
x6y56=e6
x7y56=e0
x8y56=e0
x9y56=e6
x10y56=b5
x11y56=e8
x12y56=e8
x13y56=ed
x14y56=ed
x15y56=ed
x16y56=34
x17y56=ee
x18y56=34
x19y56=ed
x20y56=34
x21y56=ed
x22y56=ed
x23y56=ec
x24y56=ec
x25y56=eb
x26y56=ea
x27y56=e9
x28y56=00
x29y56=00
x30y56=00
x31y56=e8
x32y56=ef
x33y56=f6
x34y56=e0
x35y56=e6
x36y56=e6
x37y56=e0
x38y56=e0
x39y56=e6
x40y56=e0
x41y56=e6
x42y56=e0
x43y56=e0
x44y56=e6
x45y56=e0
x46y56=e0
x47y56=e6
x48y56=e0
x49y56=e0
x50y56=e0
x51y56=e6
x52y56=e0
x53y56=e6
x54y56=e6
x55y56=e0
x56y56=e0
x57y56=e6
x58y56=e0
x59y56=e6
x60y56=e0
x61y56=e0
x62y56=e6
x63y56=e0
x64y56=e6
x65y56=e0
x66y56=e6
x67y56=e0
x68y56=e6
x69y56=e0
x70y56=e0
x71y56=e6
x72y56=e0
x73y56=e6
x74y56=e0
x75y56=e6
x76y56=e0
x77y56=e0
x78y56=e0
x79y56=e6
x80y56=e0
x81y56=e6
x82y56=e0
x83y56=e0
x84y56=e0
x85y56=e6
x86y56=bc
x87y56=65
x88y56=ea
x89y56=00
x90y56=00
x91y56=ea
x92y56=f4
x93y56=fd
x94y56=0f
x95y56=0f
x96y56=0f
x97y56=0f
x98y56=0f
x99y56=0f
x100y56=0f
x101y56=0f
x102y56=0f
x103y56=0f
x104y56=0f
x105y56=0f
x106y56=0f
x107y56=0f
x108y56=0f
x109y56=0f
x110y56=0f
x111y56=0f
x112y56=0f
x1y57=e0
x2y57=e6
x3y57=e0
x4y57=e6
x5y57=e0
x6y57=e0
x7y57=e6
x8y57=e0
x9y57=e0
x10y57=e6
x11y57=ee
x12y57=00
x13y57=ea
x14y57=ee
x15y57=34
x16y57=ef
x17y57=ed
x18y57=ed
x19y57=ed
x20y57=ed
x21y57=ed
x22y57=34
x23y57=ed
x24y57=ec
x25y57=34
x26y57=ee
x27y57=ec
x28y57=ec
x29y57=eb
x30y57=e9
x31y57=00
x32y57=00
x33y57=00
x34y57=e9
x35y57=f2
x36y57=b5
x37y57=e6
x38y57=e6
x39y57=e0
x40y57=e0
x41y57=e0
x42y57=e6
x43y57=e0
x44y57=e0
x45y57=e6
x46y57=e0
x47y57=e0
x48y57=e6
x49y57=e0
x50y57=e6
x51y57=e0
x52y57=e6
x53y57=e0
x54y57=e0
x55y57=e6
x56y57=e0
x57y57=e0
x58y57=e6
x59y57=e0
x60y57=e6
x61y57=e0
x62y57=e6
x63y57=e0
x64y57=e0
x65y57=e6
x66y57=e0
x67y57=e0
x68y57=e0
x69y57=e6
x70y57=e0
x71y57=e0
x72y57=e6
x73y57=e0
x74y57=e0
x75y57=e6
x76y57=e0
x77y57=e6
x78y57=e0
x79y57=e0
x80y57=e6
x81y57=e0
x82y57=e0
x83y57=e6
x84y57=e0
x85y57=e0
x86y57=e6
x87y57=ff
x88y57=e0
x89y57=66
x90y57=eb
x91y57=00
x92y57=00
x93y57=e8
x94y57=f1
x95y57=fb
x96y57=0f
x97y57=0f
x98y57=0f
x99y57=0f
x100y57=0f
x101y57=0f
x102y57=0f
x103y57=0f
x104y57=0f
x105y57=0f
x106y57=0f
x107y57=0f
x108y57=0f
x109y57=0f
x110y57=0f
x111y57=0f
x112y57=0f
x1y58=e0
x2y58=e0
x3y58=e6
x4y58=e0
x5y58=e0
x6y58=e6
x7y58=e0
x8y58=e6
x9y58=e0
x10y58=e6
x11y58=b5
x12y58=00
x13y58=e8
x14y58=ed
x15y58=ee
x16y58=ed
x17y58=34
x18y58=ee
x19y58=ed
x20y58=34
x21y58=ee
x22y58=ee
x23y58=34
x24y58=ee
x25y58=ed
x26y58=ed
x27y58=34
x28y58=ed
x29y58=ed
x30y58=ed
x31y58=ec
x32y58=eb
x33y58=e9
x34y58=00
x35y58=00
x36y58=00
x37y58=ed
x38y58=f7
x39y58=e6
x40y58=e6
x41y58=e0
x42y58=e0
x43y58=e6
x44y58=e0
x45y58=e0
x46y58=e6
x47y58=e0
x48y58=e0
x49y58=e6
x50y58=e0
x51y58=e0
x52y58=e0
x53y58=e6
x54y58=e0
x55y58=e0
x56y58=e6
x57y58=e0
x58y58=e0
x59y58=e6
x60y58=e0
x61y58=e0
x62y58=e0
x63y58=e6
x64y58=e0
x65y58=e0
x66y58=e6
x67y58=e0
x68y58=e6
x69y58=e0
x70y58=e6
x71y58=e0
x72y58=e0
x73y58=e6
x74y58=e0
x75y58=e0
x76y58=e6
x77y58=e0
x78y58=e6
x79y58=e0
x80y58=e0
x81y58=e6
x82y58=e0
x83y58=e0
x84y58=e6
x85y58=e0
x86y58=e0
x87y58=e0
x88y58=e6
x89y58=e6
x90y58=e0
x91y58=f6
x92y58=ed
x93y58=00
x94y58=00
x95y58=00
x96y58=ee
x97y58=f7
x98y58=ff
x99y58=0f
x100y58=0f
x101y58=0f
x102y58=0f
x103y58=0f
x104y58=0f
x105y58=0f
x106y58=0f
x107y58=0f
x108y58=0f
x109y58=0f
x110y58=0f
x111y58=0f
x112y58=0f
x1y59=e6
x2y59=e0
x3y59=e0
x4y59=e6
x5y59=e0
x6y59=e0
x7y59=e6
x8y59=e0
x9y59=e0
x10y59=e0
x11y59=e6
x12y59=f0
x13y59=e8
x14y59=e9
x15y59=58
x16y59=ef
x17y59=ef
x18y59=34
x19y59=08
x20y59=ee
x21y59=ed
x22y59=ee
x23y59=ee
x24y59=ed
x25y59=34
x26y59=ee
x27y59=ee
x28y59=ed
x29y59=34
x30y59=ed
x31y59=34
x32y59=ed
x33y59=ed
x34y59=eb
x35y59=ea
x36y59=e8
x37y59=00
x38y59=00
x39y59=eb
x40y59=8a
x41y59=e6
x42y59=e6
x43y59=e0
x44y59=e6
x45y59=e0
x46y59=e0
x47y59=e6
x48y59=e0
x49y59=e0
x50y59=e6
x51y59=e0
x52y59=e6
x53y59=e0
x54y59=e6
x55y59=e0
x56y59=e0
x57y59=e6
x58y59=e0
x59y59=e0
x60y59=e6
x61y59=e0
x62y59=e6
x63y59=e0
x64y59=e6
x65y59=e0
x66y59=e0
x67y59=e6
x68y59=e0
x69y59=e0
x70y59=e0
x71y59=e6
x72y59=e0
x73y59=e0
x74y59=e6
x75y59=e0
x76y59=e0
x77y59=e0
x78y59=e0
x79y59=e6
x80y59=e0
x81y59=e0
x82y59=e6
x83y59=e0
x84y59=e0
x85y59=e6
x86y59=e0
x87y59=e6
x88y59=e0
x89y59=e0
x90y59=e0
x91y59=e6
x92y59=e6
x93y59=91
x94y59=08
x95y59=e8
x96y59=00
x97y59=00
x98y59=eb
x99y59=f3
x100y59=fc
x101y59=0f
x102y59=0f
x103y59=0f
x104y59=0f
x105y59=0f
x106y59=0f
x107y59=0f
x108y59=0f
x109y59=0f
x110y59=0f
x111y59=0f
x112y59=0f
x1y60=e0
x2y60=e6
x3y60=e0
x4y60=e0
x5y60=e6
x6y60=e0
x7y60=e0
x8y60=e6
x9y60=e0
x10y60=e6
x11y60=e0
x12y60=e0
x13y60=e9
x14y60=e8
x15y60=eb
x16y60=ef
x17y60=ee
x18y60=ef
x19y60=58
x20y60=ee
x21y60=58
x22y60=ee
x23y60=34
x24y60=ef
x25y60=ee
x26y60=ee
x27y60=34
x28y60=ee
x29y60=ee
x30y60=ed
x31y60=ee
x32y60=ed
x33y60=34
x34y60=ee
x35y60=ed
x36y60=ec
x37y60=eb
x38y60=e9
x39y60=00
x40y60=00
x41y60=eb
x42y60=f6
x43y60=e0
x44y60=e6
x45y60=e0
x46y60=e6
x47y60=e0
x48y60=e6
x49y60=e0
x50y60=e6
x51y60=e0
x52y60=e0
x53y60=e0
x54y60=e0
x55y60=e6
x56y60=e0
x57y60=e6
x58y60=e0
x59y60=e6
x60y60=e0
x61y60=e0
x62y60=e0
x63y60=e0
x64y60=e0
x65y60=e6
x66y60=e0
x67y60=e0
x68y60=e6
x69y60=e0
x70y60=e6
x71y60=e0
x72y60=e6
x73y60=e0
x74y60=e0
x75y60=e6
x76y60=e0
x77y60=e6
x78y60=e0
x79y60=e6
x80y60=e0
x81y60=e6
x82y60=e0
x83y60=e6
x84y60=e0
x85y60=e0
x86y60=e6
x87y60=e0
x88y60=e0
x89y60=e6
x90y60=e0
x91y60=e0
x92y60=e0
x93y60=e6
x94y60=e6
x95y60=b5
x96y60=f4
x97y60=eb
x98y60=00
x99y60=00
x100y60=00
x101y60=ee
x102y60=f7
x103y60=fe
x104y60=0f
x105y60=0f
x106y60=0f
x107y60=0f
x108y60=0f
x109y60=0f
x110y60=0f
x111y60=0f
x112y60=0f
x1y61=e0
x2y61=e0
x3y61=e6
x4y61=e0
x5y61=e6
x6y61=e0
x7y61=e6
x8y61=e0
x9y61=e0
x10y61=e0
x11y61=e6
x12y61=e6
x13y61=07
x14y61=e8
x15y61=e8
x16y61=34
x17y61=ef
x18y61=ee
x19y61=ef
x20y61=ee
x21y61=ef
x22y61=ee
x23y61=ef
x24y61=58
x25y61=ef
x26y61=ee
x27y61=ee
x28y61=ee
x29y61=58
x30y61=ee
x31y61=ed
x32y61=34
x33y61=ef
x34y61=ed
x35y61=34
x36y61=ee
x37y61=ed
x38y61=34
x39y61=ec
x40y61=e9
x41y61=00
x42y61=00
x43y61=ec
x44y61=90
x45y61=e0
x46y61=e6
x47y61=e0
x48y61=e0
x49y61=e6
x50y61=e0
x51y61=e6
x52y61=e0
x53y61=e6
x54y61=e0
x55y61=e6
x56y61=e0
x57y61=e0
x58y61=e6
x59y61=e0
x60y61=e0
x61y61=e6
x62y61=e6
x63y61=e0
x64y61=e6
x65y61=e0
x66y61=e6
x67y61=e0
x68y61=e0
x69y61=e6
x70y61=e0
x71y61=e0
x72y61=e0
x73y61=e6
x74y61=e0
x75y61=e6
x76y61=e0
x77y61=e6
x78y61=e0
x79y61=e0
x80y61=e6
x81y61=e0
x82y61=e0
x83y61=e0
x84y61=e6
x85y61=e0
x86y61=e0
x87y61=e6
x88y61=e0
x89y61=e0
x90y61=e6
x91y61=e0
x92y61=e6
x93y61=e0
x94y61=e0
x95y61=e6
x96y61=e6
x97y61=e0
x98y61=f7
x99y61=ee
x100y61=e8
x101y61=00
x102y61=00
x103y61=e9
x104y61=3b
x105y61=91
x106y61=ff
x107y61=0f
x108y61=0f
x109y61=0f
x110y61=0f
x111y61=0f
x112y61=0f
x1y62=e6
x2y62=e0
x3y62=e0
x4y62=e6
x5y62=e0
x6y62=e0
x7y62=e0
x8y62=e6
x9y62=e0
x10y62=e6
x11y62=e0
x12y62=e0
x13y62=e6
x14y62=66
x15y62=00
x16y62=e8
x17y62=ed
x18y62=58
x19y62=5f
x20y62=34
x21y62=5f
x22y62=34
x23y62=08
x24y62=ef
x25y62=ee
x26y62=58
x27y62=ef
x28y62=ee
x29y62=ee
x30y62=ee
x31y62=58
x32y62=08
x33y62=ee
x34y62=ee
x35y62=ee
x36y62=58
x37y62=ee
x38y62=ee
x39y62=ed
x40y62=ed
x41y62=eb
x42y62=e9
x43y62=00
x44y62=00
x45y62=ee
x46y62=b5
x47y62=e6
x48y62=e0
x49y62=e0
x50y62=e0
x51y62=e0
x52y62=e6
x53y62=e0
x54y62=e6
x55y62=e0
x56y62=e0
x57y62=e6
x58y62=e0
x59y62=e0
x60y62=e6
x61y62=e0
x62y62=e0
x63y62=e6
x64y62=e0
x65y62=e0
x66y62=e0
x67y62=e6
x68y62=e0
x69y62=e0
x70y62=e6
x71y62=e0
x72y62=e6
x73y62=e0
x74y62=e0
x75y62=e0
x76y62=e6
x77y62=e0
x78y62=e0
x79y62=e6
x80y62=e0
x81y62=e0
x82y62=e6
x83y62=e0
x84y62=e0
x85y62=e6
x86y62=e0
x87y62=e0
x88y62=e6
x89y62=e0
x90y62=e6
x91y62=e0
x92y62=e0
x93y62=e6
x94y62=e0
x95y62=e0
x96y62=e0
x97y62=e6
x98y62=e6
x99y62=e0
x100y62=bb
x101y62=f4
x102y62=eb
x103y62=00
x104y62=00
x105y62=00
x106y62=ea
x107y62=f2
x108y62=91
x109y62=ff
x110y62=0f
x111y62=0f
x112y62=0f
x1y63=e0
x2y63=e6
x3y63=e0
x4y63=e0
x5y63=e6
x6y63=e0
x7y63=e6
x8y63=e0
x9y63=e6
x10y63=e0
x11y63=e0
x12y63=e6
x13y63=e0
x14y63=e6
x15y63=f2
x16y63=e8
x17y63=e8
x18y63=ee
x19y63=ef
x20y63=ef
x21y63=ee
x22y63=5f
x23y63=34
x24y63=08
x25y63=ee
x26y63=ef
x27y63=58
x28y63=ef
x29y63=58
x30y63=08
x31y63=ef
x32y63=ee
x33y63=58
x34y63=ee
x35y63=ee
x36y63=ee
x37y63=ee
x38y63=34
x39y63=ef
x40y63=34
x41y63=ef
x42y63=ed
x43y63=eb
x44y63=e8
x45y63=00
x46y63=e8
x47y63=f3
x48y63=e0
x49y63=e6
x50y63=e0
x51y63=e6
x52y63=e0
x53y63=e0
x54y63=e0
x55y63=e6
x56y63=e0
x57y63=e0
x58y63=e6
x59y63=e0
x60y63=e0
x61y63=e6
x62y63=e0
x63y63=e0
x64y63=e6
x65y63=e0
x66y63=e6
x67y63=e0
x68y63=e6
x69y63=e0
x70y63=e0
x71y63=e6
x72y63=e0
x73y63=e0
x74y63=e6
x75y63=e0
x76y63=e0
x77y63=e6
x78y63=e0
x79y63=e0
x80y63=e6
x81y63=e0
x82y63=e0
x83y63=e6
x84y63=e0
x85y63=e6
x86y63=e0
x87y63=e6
x88y63=e0
x89y63=e0
x90y63=e0
x91y63=e6
x92y63=e0
x93y63=e0
x94y63=e6
x95y63=e0
x96y63=e0
x97y63=e0
x98y63=e0
x99y63=e6
x100y63=e0
x101y63=e6
x102y63=e0
x103y63=f9
x104y63=5f
x105y63=ea
x106y63=00
x107y63=00
x108y63=00
x109y63=e9
x110y63=08
x111y63=f6
x112y63=fc
x1y64=e0
x2y64=e0
x3y64=e6
x4y64=e0
x5y64=e6
x6y64=e0
x7y64=e0
x8y64=e6
x9y64=e0
x10y64=e0
x11y64=e6
x12y64=e0
x13y64=e0
x14y64=e0
x15y64=e6
x16y64=f1
x17y64=e8
x18y64=e8
x19y64=34
x20y64=5f
x21y64=58
x22y64=08
x23y64=08
x24y64=58
x25y64=5f
x26y64=ee
x27y64=5f
x28y64=ee
x29y64=ef
x30y64=ee
x31y64=58
x32y64=08
x33y64=ef
x34y64=ee
x35y64=58
x36y64=ef
x37y64=ee
x38y64=ef
x39y64=ee
x40y64=ef
x41y64=34
x42y64=ef
x43y64=ee
x44y64=34
x45y64=ec
x46y64=00
x47y64=00
x48y64=eb
x49y64=f9
x50y64=e6
x51y64=e0
x52y64=e6
x53y64=e0
x54y64=e6
x55y64=e0
x56y64=e6
x57y64=e0
x58y64=e0
x59y64=e6
x60y64=e0
x61y64=e0
x62y64=e6
x63y64=e0
x64y64=e0
x65y64=e6
x66y64=e0
x67y64=e0
x68y64=e0
x69y64=e6
x70y64=e0
x71y64=e0
x72y64=e6
x73y64=e0
x74y64=e6
x75y64=e0
x76y64=e6
x77y64=e0
x78y64=e6
x79y64=e0
x80y64=e0
x81y64=e6
x82y64=e0
x83y64=e6
x84y64=e0
x85y64=e0
x86y64=e6
x87y64=e0
x88y64=e6
x89y64=e0
x90y64=e6
x91y64=e0
x92y64=e6
x93y64=e0
x94y64=e0
x95y64=e6
x96y64=e0
x97y64=e6
x98y64=e0
x99y64=e0
x100y64=e6
x101y64=e0
x102y64=e0
x103y64=e6
x104y64=e6
x105y64=e0
x106y64=f8
x107y64=f1
x108y64=eb
x109y64=00
x110y64=00
x111y64=00
x112y64=00
x1y65=e6
x2y65=e0
x3y65=e0
x4y65=e6
x5y65=e0
x6y65=e6
x7y65=e0
x8y65=e0
x9y65=e6
x10y65=e0
x11y65=e0
x12y65=e6
x13y65=e0
x14y65=e6
x15y65=e0
x16y65=e6
x17y65=3b
x18y65=e8
x19y65=e9
x20y65=ee
x21y65=5f
x22y65=ee
x23y65=5f
x24y65=ef
x25y65=58
x26y65=08
x27y65=58
x28y65=08
x29y65=58
x30y65=5f
x31y65=ef
x32y65=ee
x33y65=58
x34y65=f0
x35y65=ef
x36y65=58
x37y65=5f
x38y65=34
x39y65=5f
x40y65=ed
x41y65=ef
x42y65=58
x43y65=ef
x44y65=ef
x45y65=ee
x46y65=ec
x47y65=e9
x48y65=00
x49y65=00
x50y65=f2
x51y65=e0
x52y65=e6
x53y65=e0
x54y65=e0
x55y65=e6
x56y65=e0
x57y65=e0
x58y65=e6
x59y65=e0
x60y65=e6
x61y65=e0
x62y65=e0
x63y65=e6
x64y65=e0
x65y65=e0
x66y65=e6
x67y65=e0
x68y65=e6
x69y65=e0
x70y65=e6
x71y65=e0
x72y65=e0
x73y65=e6
x74y65=e0
x75y65=e0
x76y65=e6
x77y65=e0
x78y65=e0
x79y65=e6
x80y65=e0
x81y65=e6
x82y65=e0
x83y65=e0
x84y65=e6
x85y65=e0
x86y65=e0
x87y65=e0
x88y65=e0
x89y65=e6
x90y65=e0
x91y65=e0
x92y65=e0
x93y65=e6
x94y65=e0
x95y65=e0
x96y65=e6
x97y65=e0
x98y65=e6
x99y65=e0
x100y65=e0
x101y65=e6
x102y65=e0
x103y65=e0
x104y65=e0
x105y65=e6
x106y65=e6
x107y65=e6
x108y65=e0
x109y65=b5
x110y65=f3
x111y65=ee
x112y65=e9
x1y66=e0
x2y66=e6
x3y66=e0
x4y66=e0
x5y66=e0
x6y66=e0
x7y66=e6
x8y66=e0
x9y66=e0
x10y66=e6
x11y66=e0
x12y66=e0
x13y66=e6
x14y66=e0
x15y66=e0
x16y66=e0
x17y66=e6
x18y66=08
x19y66=00
x20y66=e8
x21y66=ee
x22y66=06
x23y66=35
x24y66=5f
x25y66=ef
x26y66=5f
x27y66=ef
x28y66=5f
x29y66=ef
x30y66=ef
x31y66=58
x32y66=5f
x33y66=ef
x34y66=5f
x35y66=ee
x36y66=ef
x37y66=ee
x38y66=ef
x39y66=58
x40y66=ef
x41y66=ef
x42y66=ef
x43y66=58
x44y66=ef
x45y66=58
x46y66=ef
x47y66=ee
x48y66=eb
x49y66=e8
x50y66=00
x51y66=ec
x52y66=bb
x53y66=e6
x54y66=e0
x55y66=e0
x56y66=e6
x57y66=e0
x58y66=e0
x59y66=e6
x60y66=e0
x61y66=e6
x62y66=e0
x63y66=e0
x64y66=e6
x65y66=e0
x66y66=e6
x67y66=e0
x68y66=e0
x69y66=e6
x70y66=e0
x71y66=e6
x72y66=e0
x73y66=e0
x74y66=e6
x75y66=e0
x76y66=e0
x77y66=e6
x78y66=e0
x79y66=e0
x80y66=e6
x81y66=e0
x82y66=e0
x83y66=e6
x84y66=e0
x85y66=e6
x86y66=e0
x87y66=e6
x88y66=e0
x89y66=e0
x90y66=e6
x91y66=e0
x92y66=e6
x93y66=e0
x94y66=e6
x95y66=e0
x96y66=e0
x97y66=e6
x98y66=e0
x99y66=e0
x100y66=e6
x101y66=e0
x102y66=e6
x103y66=e0
x104y66=e6
x105y66=e0
x106y66=e0
x107y66=e0
x108y66=e0
x109y66=e6
x110y66=e6
x111y66=e0
x112y66=bb
x1y67=e0
x2y67=e0
x3y67=e6
x4y67=e0
x5y67=e6
x6y67=e0
x7y67=e0
x8y67=e6
x9y67=e0
x10y67=e0
x11y67=e6
x12y67=e0
x13y67=e0
x14y67=e6
x15y67=e0
x16y67=e6
x17y67=e0
x18y67=e6
x19y67=ef
x20y67=e8
x21y67=e9
x22y67=5f
x23y67=ef
x24y67=5e
x25y67=59
x26y67=5e
x27y67=ef
x28y67=59
x29y67=5e
x30y67=5f
x31y67=ef
x32y67=5f
x33y67=34
x34y67=5f
x35y67=58
x36y67=5f
x37y67=58
x38y67=f0
x39y67=08
x40y67=58
x41y67=5f
x42y67=ee
x43y67=ef
x44y67=ef
x45y67=ef
x46y67=ee
x47y67=58
x48y67=08
x49y67=ed
x50y67=e9
x51y67=00
x52y67=e9
x53y67=8a
x54y67=e6
x55y67=e0
x56y67=e0
x57y67=e6
x58y67=e0
x59y67=e0
x60y67=e0
x61y67=e0
x62y67=e6
x63y67=e0
x64y67=e0
x65y67=e6
x66y67=e0
x67y67=e6
x68y67=e0
x69y67=e0
x70y67=e0
x71y67=e0
x72y67=e6
x73y67=e0
x74y67=e0
x75y67=e6
x76y67=e0
x77y67=e0
x78y67=e6
x79y67=e0
x80y67=e0
x81y67=e6
x82y67=e0
x83y67=e0
x84y67=e6
x85y67=e0
x86y67=e0
x87y67=e6
x88y67=e0
x89y67=e6
x90y67=e0
x91y67=e6
x92y67=e0
x93y67=e0
x94y67=e0
x95y67=e6
x96y67=e0
x97y67=e0
x98y67=e6
x99y67=e0
x100y67=e0
x101y67=e0
x102y67=e0
x103y67=e6
x104y67=e0
x105y67=e0
x106y67=e6
x107y67=e0
x108y67=e6
x109y67=e0
x110y67=e0
x111y67=e6
x112y67=e0
x1y68=e6
x2y68=e0
x3y68=e6
x4y68=e0
x5y68=e6
x6y68=e0
x7y68=e6
x8y68=e0
x9y68=e6
x10y68=e0
x11y68=e0
x12y68=e6
x13y68=e0
x14y68=e0
x15y68=e6
x16y68=e0
x17y68=e0
x18y68=e0
x19y68=e0
x20y68=ec
x21y68=00
x22y68=ea
x23y68=83
x24y68=ef
x25y68=5f
x26y68=5f
x27y68=5f
x28y68=ef
x29y68=5f
x30y68=59
x31y68=5e
x32y68=ef
x33y68=5f
x34y68=ee
x35y68=5f
x36y68=ee
x37y68=5f
x38y68=ef
x39y68=5f
x40y68=ee
x41y68=ef
x42y68=58
x43y68=5f
x44y68=58
x45y68=5f
x46y68=ee
x47y68=5f
x48y68=34
x49y68=5f
x50y68=ed
x51y68=ea
x52y68=e8
x53y68=00
x54y68=f3
x55y68=e6
x56y68=e0
x57y68=e0
x58y68=e6
x59y68=e0
x60y68=e6
x61y68=e0
x62y68=e6
x63y68=e0
x64y68=e6
x65y68=e0
x66y68=e0
x67y68=e0
x68y68=e6
x69y68=e0
x70y68=e6
x71y68=e0
x72y68=e0
x73y68=e6
x74y68=e0
x75y68=e0
x76y68=e6
x77y68=e0
x78y68=e0
x79y68=e6
x80y68=e0
x81y68=e0
x82y68=e6
x83y68=e0
x84y68=e0
x85y68=e6
x86y68=e0
x87y68=e0
x88y68=e6
x89y68=e0
x90y68=e0
x91y68=e0
x92y68=e6
x93y68=e0
x94y68=e6
x95y68=e0
x96y68=e6
x97y68=e0
x98y68=e0
x99y68=e6
x100y68=e0
x101y68=e6
x102y68=e0
x103y68=e0
x104y68=e6
x105y68=e0
x106y68=e0
x107y68=e6
x108y68=e0
x109y68=e0
x110y68=e6
x111y68=e0
x112y68=e0
x1y69=e0
x2y69=e0
x3y69=e0
x4y69=e6
x5y69=e0
x6y69=e0
x7y69=e0
x8y69=e6
x9y69=e0
x10y69=e6
x11y69=e0
x12y69=e0
x13y69=e6
x14y69=e0
x15y69=e0
x16y69=e6
x17y69=e0
x18y69=e6
x19y69=e6
x20y69=b5
x21y69=e9
x22y69=00
x23y69=ee
x24y69=83
x25y69=59
x26y69=5e
x27y69=59
x28y69=5e
x29y69=ef
x30y69=5f
x31y69=ef
x32y69=59
x33y69=5e
x34y69=59
x35y69=08
x36y69=5e
x37y69=59
x38y69=5e
x39y69=59
x40y69=5e
x41y69=5f
x42y69=ef
x43y69=ef
x44y69=08
x45y69=58
x46y69=08
x47y69=ef
x48y69=ef
x49y69=58
x50y69=5f
x51y69=ee
x52y69=34
x53y69=e8
x54y69=00
x55y69=ef
x56y69=e0
x57y69=e6
x58y69=e0
x59y69=e6
x60y69=e0
x61y69=e6
x62y69=e0
x63y69=e0
x64y69=e0
x65y69=e6
x66y69=e0
x67y69=e6
x68y69=e0
x69y69=e6
x70y69=e0
x71y69=e6
x72y69=e0
x73y69=e0
x74y69=e6
x75y69=e0
x76y69=e6
x77y69=e0
x78y69=e6
x79y69=e0
x80y69=e6
x81y69=e0
x82y69=e0
x83y69=e6
x84y69=e0
x85y69=e0
x86y69=e6
x87y69=e0
x88y69=e0
x89y69=e6
x90y69=e0
x91y69=e6
x92y69=e0
x93y69=e6
x94y69=e0
x95y69=e0
x96y69=e0
x97y69=e6
x98y69=e0
x99y69=e0
x100y69=e6
x101y69=e0
x102y69=e6
x103y69=e0
x104y69=e0
x105y69=e6
x106y69=e0
x107y69=e0
x108y69=e6
x109y69=e0
x110y69=e0
x111y69=e6
x112y69=e0
x1y70=e6
x2y70=e0
x3y70=e6
x4y70=e0
x5y70=e0
x6y70=e6
x7y70=e0
x8y70=e0
x9y70=e0
x10y70=e0
x11y70=e6
x12y70=e0
x13y70=e6
x14y70=e0
x15y70=e6
x16y70=e0
x17y70=e0
x18y70=e0
x19y70=e0
x20y70=e6
x21y70=f3
x22y70=e8
x23y70=34
x24y70=5f
x25y70=08
x26y70=5f
x27y70=5f
x28y70=5f
x29y70=59
x30y70=5e
x31y70=5f
x32y70=5f
x33y70=5f
x34y70=ef
x35y70=5f
x36y70=5f
x37y70=ef
x38y70=5f
x39y70=ef
x40y70=5f
x41y70=59
x42y70=5e
x43y70=59
x44y70=5f
x45y70=08
x46y70=5f
x47y70=58
x48y70=5f
x49y70=ef
x50y70=ef
x51y70=5f
x52y70=ef
x53y70=ed
x54y70=e8
x55y70=00
x56y70=ec
x57y70=bb
x58y70=e6
x59y70=e0
x60y70=e0
x61y70=e0
x62y70=e6
x63y70=e0
x64y70=e6
x65y70=e0
x66y70=e0
x67y70=e0
x68y70=e0
x69y70=e0
x70y70=e6
x71y70=e0
x72y70=e6
x73y70=e0
x74y70=e0
x75y70=e6
x76y70=e0
x77y70=e0
x78y70=e0
x79y70=e6
x80y70=e0
x81y70=e6
x82y70=e0
x83y70=e0
x84y70=e6
x85y70=e0
x86y70=e6
x87y70=e0
x88y70=e6
x89y70=e0
x90y70=e6
x91y70=e0
x92y70=e0
x93y70=e0
x94y70=e6
x95y70=e0
x96y70=e6
x97y70=e0
x98y70=e6
x99y70=e0
x100y70=e0
x101y70=e6
x102y70=e0
x103y70=e6
x104y70=e0
x105y70=e0
x106y70=e6
x107y70=e0
x108y70=e0
x109y70=e6
x110y70=e0
x111y70=e0
x112y70=e6
x1y71=e0
x2y71=e6
x3y71=e0
x4y71=e6
x5y71=e0
x6y71=e6
x7y71=e0
x8y71=e6
x9y71=e0
x10y71=e6
x11y71=e0
x12y71=e0
x13y71=e0
x14y71=e6
x15y71=e0
x16y71=e0
x17y71=e6
x18y71=e0
x19y71=e6
x20y71=e0
x21y71=bb
x22y71=e8
x23y71=00
x24y71=5f
x25y71=5f
x26y71=5e
x27y71=59
x28y71=5f
x29y71=5f
x30y71=5f
x31y71=59
x32y71=5e
x33y71=5f
x34y71=59
x35y71=5e
x36y71=59
x37y71=5f
x38y71=5e
x39y71=59
x40y71=ef
x41y71=5f
x42y71=ef
x43y71=5f
x44y71=5e
x45y71=59
x46y71=ef
x47y71=5f
x48y71=ee
x49y71=5f
x50y71=58
x51y71=ef
x52y71=58
x53y71=5f
x54y71=ee
x55y71=e9
x56y71=e8
x57y71=e9
x58y71=f8
x59y71=e6
x60y71=e6
x61y71=e0
x62y71=e0
x63y71=e6
x64y71=e0
x65y71=e6
x66y71=e0
x67y71=e6
x68y71=e6
x69y71=e0
x70y71=e0
x71y71=e0
x72y71=e0
x73y71=e6
x74y71=e0
x75y71=e0
x76y71=e6
x77y71=e0
x78y71=e6
x79y71=e0
x80y71=e0
x81y71=e0
x82y71=e6
x83y71=e0
x84y71=e6
x85y71=e0
x86y71=e0
x87y71=e6
x88y71=e0
x89y71=e0
x90y71=e0
x91y71=e6
x92y71=e0
x93y71=e6
x94y71=e0
x95y71=e6
x96y71=e0
x97y71=e0
x98y71=e0
x99y71=e6
x100y71=e0
x101y71=e0
x102y71=e0
x103y71=e0
x104y71=e6
x105y71=e0
x106y71=e6
x107y71=e0
x108y71=e6
x109y71=e0
x110y71=e6
x111y71=e0
x112y71=e0
x1y72=e0
x2y72=e0
x3y72=e0
x4y72=e0
x5y72=e6
x6y72=e0
x7y72=e0
x8y72=e6
x9y72=e0
x10y72=e0
x11y72=e6
x12y72=e0
x13y72=e6
x14y72=e0
x15y72=e0
x16y72=e6
x17y72=e0
x18y72=e6
x19y72=e0
x20y72=e0
x21y72=e6
x22y72=eb
x23y72=00
x24y72=ef
x25y72=83
x26y72=5f
x27y72=5f
x28y72=5f
x29y72=5e
x30y72=5f
x31y72=5f
x32y72=5f
x33y72=5f
x34y72=5f
x35y72=5f
x36y72=5f
x37y72=5f
x38y72=ef
x39y72=5f
x40y72=06
x41y72=5f
x42y72=59
x43y72=5e
x44y72=f0
x45y72=5f
x46y72=5e
x47y72=59
x48y72=5e
x49y72=08
x50y72=5f
x51y72=5f
x52y72=ef
x53y72=5f
x54y72=58
x55y72=5f
x56y72=e9
x57y72=00
x58y72=00
x59y72=f1
x60y72=e0
x61y72=e6
x62y72=e0
x63y72=e0
x64y72=e0
x65y72=e0
x66y72=e6
x67y72=e0
x68y72=e0
x69y72=e6
x70y72=e0
x71y72=e6
x72y72=e0
x73y72=e6
x74y72=e0
x75y72=e6
x76y72=e0
x77y72=e6
x78y72=e0
x79y72=e0
x80y72=e6
x81y72=e0
x82y72=e6
x83y72=e0
x84y72=e0
x85y72=e6
x86y72=e0
x87y72=e0
x88y72=e6
x89y72=e0
x90y72=e6
x91y72=e0
x92y72=e6
x93y72=e0
x94y72=e0
x95y72=e0
x96y72=e6
x97y72=e0
x98y72=e6
x99y72=e0
x100y72=e6
x101y72=e0
x102y72=e6
x103y72=e0
x104y72=e6
x105y72=e0
x106y72=e0
x107y72=e6
x108y72=e0
x109y72=e0
x110y72=e0
x111y72=e6
x112y72=e0
x1y73=e6
x2y73=e0
x3y73=e6
x4y73=e0
x5y73=e0
x6y73=e6
x7y73=e0
x8y73=e0
x9y73=e6
x10y73=e0
x11y73=e6
x12y73=e0
x13y73=e0
x14y73=e6
x15y73=e0
x16y73=e0
x17y73=e6
x18y73=e0
x19y73=e0
x20y73=e6
x21y73=e0
x22y73=ec
x23y73=00
x24y73=5f
x25y73=83
x26y73=59
x27y73=5f
x28y73=5f
x29y73=5f
x30y73=59
x31y73=5f
x32y73=5f
x33y73=06
x34y73=5f
x35y73=5f
x36y73=58
x37y73=5f
x38y73=5f
x39y73=5f
x40y73=59
x41y73=5f
x42y73=5f
x43y73=5f
x44y73=59
x45y73=5f
x46y73=ef
x47y73=5f
x48y73=5f
x49y73=59
x50y73=5e
x51y73=59
x52y73=5f
x53y73=ef
x54y73=5f
x55y73=ef
x56y73=5f
x57y73=eb
x58y73=e8
x59y73=00
x60y73=ea
x61y73=66
x62y73=df
x63y73=e6
x64y73=e6
x65y73=e6
x66y73=e0
x67y73=e0
x68y73=e6
x69y73=e0
x70y73=e0
x71y73=e6
x72y73=e0
x73y73=e0
x74y73=e6
x75y73=e0
x76y73=e0
x77y73=e0
x78y73=e6
x79y73=e0
x80y73=e6
x81y73=e0
x82y73=e0
x83y73=e6
x84y73=e0
x85y73=e0
x86y73=e6
x87y73=e0
x88y73=e0
x89y73=e6
x90y73=e0
x91y73=e0
x92y73=e0
x93y73=e6
x94y73=e0
x95y73=e6
x96y73=e0
x97y73=e6
x98y73=e0
x99y73=e0
x100y73=e6
x101y73=e0
x102y73=e6
x103y73=e0
x104y73=e0
x105y73=e6
x106y73=e0
x107y73=e0
x108y73=e6
x109y73=e0
x110y73=e6
x111y73=e0
x112y73=e6
x1y74=e0
x2y74=e6
x3y74=e0
x4y74=e6
x5y74=e0
x6y74=e0
x7y74=e6
x8y74=e0
x9y74=e0
x10y74=e6
x11y74=e0
x12y74=e6
x13y74=e0
x14y74=e0
x15y74=e6
x16y74=e0
x17y74=e0
x18y74=e6
x19y74=e0
x20y74=e0
x21y74=e0
x22y74=ea
x23y74=00
x24y74=5f
x25y74=5f
x26y74=06
x27y74=5f
x28y74=83
x29y74=5f
x30y74=83
x31y74=5e
x32y74=5f
x33y74=59
x34y74=5f
x35y74=5f
x36y74=5f
x37y74=5f
x38y74=06
x39y74=5f
x40y74=5f
x41y74=5e
x42y74=5f
x43y74=5f
x44y74=5e
x45y74=5f
x46y74=5f
x47y74=59
x48y74=5e
x49y74=5f
x50y74=f0
x51y74=5f
x52y74=5e
x53y74=59
x54y74=5e
x55y74=5f
x56y74=59
x57y74=5f
x58y74=ee
x59y74=ea
x60y74=e8
x61y74=00
x62y74=e9
x63y74=3b
x64y74=8a
x65y74=fb
x66y74=e0
x67y74=e6
x68y74=e0
x69y74=e6
x70y74=e6
x71y74=e6
x72y74=e6
x73y74=e0
x74y74=e0
x75y74=e6
x76y74=e0
x77y74=e6
x78y74=e0
x79y74=e0
x80y74=e0
x81y74=e6
x82y74=e0
x83y74=e0
x84y74=e6
x85y74=e0
x86y74=e0
x87y74=e6
x88y74=e0
x89y74=e0
x90y74=e6
x91y74=e0
x92y74=e6
x93y74=e0
x94y74=e6
x95y74=e0
x96y74=e0
x97y74=e0
x98y74=e6
x99y74=e0
x100y74=e0
x101y74=e6
x102y74=e0
x103y74=e0
x104y74=e6
x105y74=e0
x106y74=e0
x107y74=e6
x108y74=e0
x109y74=e0
x110y74=e0
x111y74=e0
x112y74=e0
x1y75=e0
x2y75=e0
x3y75=e6
x4y75=e0
x5y75=e6
x6y75=e0
x7y75=e0
x8y75=e6
x9y75=e0
x10y75=e0
x11y75=e0
x12y75=e0
x13y75=e6
x14y75=e0
x15y75=e0
x16y75=e6
x17y75=e0
x18y75=e0
x19y75=e6
x20y75=e6
x21y75=b5
x22y75=00
x23y75=e9
x24y75=83
x25y75=83
x26y75=5f
x27y75=83
x28y75=5f
x29y75=83
x30y75=5f
x31y75=83
x32y75=5f
x33y75=5f
x34y75=83
x35y75=5f
x36y75=5f
x37y75=5f
x38y75=59
x39y75=5f
x40y75=5f
x41y75=5f
x42y75=59
x43y75=5f
x44y75=5f
x45y75=59
x46y75=5e
x47y75=5f
x48y75=5f
x49y75=5f
x50y75=5f
x51y75=59
x52y75=5f
x53y75=5f
x54y75=5f
x55y75=ef
x56y75=5e
x57y75=5f
x58y75=5f
x59y75=06
x60y75=ee
x61y75=ea
x62y75=00
x63y75=00
x64y75=00
x65y75=00
x66y75=ea
x67y75=ec
x68y75=08
x69y75=f2
x70y75=66
x71y75=8a
x72y75=b5
x73y75=e0
x74y75=e6
x75y75=e0
x76y75=e0
x77y75=e0
x78y75=e6
x79y75=e0
x80y75=e6
x81y75=e0
x82y75=e6
x83y75=e0
x84y75=e0
x85y75=e6
x86y75=e0
x87y75=e0
x88y75=e6
x89y75=e0
x90y75=e0
x91y75=e6
x92y75=e0
x93y75=e0
x94y75=e0
x95y75=e6
x96y75=e0
x97y75=e6
x98y75=e0
x99y75=e6
x100y75=e0
x101y75=e0
x102y75=e6
x103y75=e0
x104y75=e0
x105y75=e6
x106y75=e0
x107y75=e0
x108y75=e6
x109y75=e0
x110y75=e6
x111y75=e6
x112y75=e0
x1y76=e6
x2y76=e0
x3y76=e0
x4y76=e0
x5y76=e0
x6y76=e6
x7y76=e0
x8y76=e6
x9y76=e0
x10y76=e6
x11y76=e0
x12y76=e6
x13y76=e0
x14y76=e6
x15y76=e0
x16y76=e6
x17y76=e0
x18y76=e6
x19y76=e0
x20y76=e6
x21y76=8a
x22y76=00
x23y76=eb
x24y76=83
x25y76=83
x26y76=83
x27y76=5f
x28y76=83
x29y76=5f
x30y76=83
x31y76=5f
x32y76=83
x33y76=5f
x34y76=83
x35y76=5f
x36y76=06
x37y76=83
x38y76=5f
x39y76=83
x40y76=5f
x41y76=5f
x42y76=06
x43y76=5f
x44y76=5f
x45y76=5f
x46y76=5f
x47y76=5f
x48y76=5f
x49y76=59
x50y76=5e
x51y76=5f
x52y76=5f
x53y76=5e
x54y76=59
x55y76=5f
x56y76=5f
x57y76=59
x58y76=5f
x59y76=ef
x60y76=83
x61y76=5f
x62y76=ee
x63y76=ed
x64y76=ea
x65y76=e9
x66y76=00
x67y76=00
x68y76=00
x69y76=00
x70y76=00
x71y76=00
x72y76=ef
x73y76=e6
x74y76=e0
x75y76=e0
x76y76=e6
x77y76=e0
x78y76=e6
x79y76=e0
x80y76=e0
x81y76=e6
x82y76=e0
x83y76=e0
x84y76=e6
x85y76=e0
x86y76=e0
x87y76=e6
x88y76=e0
x89y76=e0
x90y76=e6
x91y76=e0
x92y76=e0
x93y76=e6
x94y76=e0
x95y76=e6
x96y76=e0
x97y76=e0
x98y76=e6
x99y76=e0
x100y76=e0
x101y76=e6
x102y76=e0
x103y76=e0
x104y76=e6
x105y76=e0
x106y76=e0
x107y76=e6
x108y76=e0
x109y76=e0
x110y76=e0
x111y76=e0
x112y76=e6
x1y77=e0
x2y77=e6
x3y77=e0
x4y77=e6
x5y77=e0
x6y77=e6
x7y77=e0
x8y77=e0
x9y77=e6
x10y77=e0
x11y77=e6
x12y77=e0
x13y77=e0
x14y77=e6
x15y77=e0
x16y77=e0
x17y77=e6
x18y77=e0
x19y77=e0
x20y77=e6
x21y77=f3
x22y77=00
x23y77=ee
x24y77=83
x25y77=83
x26y77=83
x27y77=83
x28y77=83
x29y77=83
x30y77=83
x31y77=83
x32y77=5f
x33y77=83
x34y77=5f
x35y77=83
x36y77=5f
x37y77=83
x38y77=5f
x39y77=5f
x40y77=83
x41y77=5f
x42y77=5f
x43y77=83
x44y77=5f
x45y77=5f
x46y77=83
x47y77=5f
x48y77=06
x49y77=5f
x50y77=5f
x51y77=5f
x52y77=5f
x53y77=5f
x54y77=5f
x55y77=5f
x56y77=5e
x57y77=5f
x58y77=5f
x59y77=59
x60y77=5e
x61y77=59
x62y77=5f
x63y77=83
x64y77=5f
x65y77=5f
x66y77=ee
x67y77=ef
x68y77=ee
x69y77=34
x70y77=e8
x71y77=e9
x72y77=bb
x73y77=e0
x74y77=e6
x75y77=e0
x76y77=e6
x77y77=e0
x78y77=e0
x79y77=e6
x80y77=e0
x81y77=e0
x82y77=e6
x83y77=e0
x84y77=e0
x85y77=e6
x86y77=e0
x87y77=e0
x88y77=e6
x89y77=e0
x90y77=e0
x91y77=e6
x92y77=e0
x93y77=e0
x94y77=e6
x95y77=e0
x96y77=e6
x97y77=e0
x98y77=e0
x99y77=e6
x100y77=e0
x101y77=e0
x102y77=e6
x103y77=e0
x104y77=e0
x105y77=e6
x106y77=e0
x107y77=e0
x108y77=e6
x109y77=e0
x110y77=e6
x111y77=e0
x112y77=e0
x1y78=e0
x2y78=e6
x3y78=e0
x4y78=e6
x5y78=e0
x6y78=e0
x7y78=e6
x8y78=e0
x9y78=e0
x10y78=e0
x11y78=e0
x12y78=e6
x13y78=e0
x14y78=e0
x15y78=e6
x16y78=e0
x17y78=e0
x18y78=e6
x19y78=e0
x20y78=e6
x21y78=f1
x22y78=e8
x23y78=ef
x24y78=a7
x25y78=83
x26y78=83
x27y78=83
x28y78=83
x29y78=83
x30y78=5f
x31y78=83
x32y78=83
x33y78=83
x34y78=83
x35y78=83
x36y78=83
x37y78=5f
x38y78=83
x39y78=83
x40y78=59
x41y78=83
x42y78=83
x43y78=5f
x44y78=83
x45y78=06
x46y78=5f
x47y78=59
x48y78=5f
x49y78=5f
x50y78=83
x51y78=5f
x52y78=5f
x53y78=06
x54y78=5f
x55y78=59
x56y78=5f
x57y78=5f
x58y78=06
x59y78=5f
x60y78=5f
x61y78=5f
x62y78=5f
x63y78=5e
x64y78=59
x65y78=5f
x66y78=06
x67y78=83
x68y78=5f
x69y78=e9
x70y78=00
x71y78=66
x72y78=e6
x73y78=e0
x74y78=e0
x75y78=e6
x76y78=e0
x77y78=e6
x78y78=e0
x79y78=e0
x80y78=e6
x81y78=e0
x82y78=e0
x83y78=e6
x84y78=e0
x85y78=e0
x86y78=e6
x87y78=e0
x88y78=e0
x89y78=e6
x90y78=e0
x91y78=e0
x92y78=e6
x93y78=e0
x94y78=e0
x95y78=e0
x96y78=e0
x97y78=e6
x98y78=e0
x99y78=e0
x100y78=e6
x101y78=e0
x102y78=e0
x103y78=e6
x104y78=e0
x105y78=e0
x106y78=e6
x107y78=e0
x108y78=e0
x109y78=e6
x110y78=e0
x111y78=e6
x112y78=e0
x1y79=e0
x2y79=e0
x3y79=e6
x4y79=e0
x5y79=e0
x6y79=e6
x7y79=e0
x8y79=e0
x9y79=e6
x10y79=e0
x11y79=e6
x12y79=e0
x13y79=e6
x14y79=e0
x15y79=e0
x16y79=e6
x17y79=e0
x18y79=e0
x19y79=e0
x20y79=e6
x21y79=3b
x22y79=e8
x23y79=5f
x24y79=83
x25y79=83
x26y79=83
x27y79=83
x28y79=83
x29y79=83
x30y79=83
x31y79=83
x32y79=83
x33y79=83
x34y79=83
x35y79=83
x36y79=83
x37y79=83
x38y79=83
x39y79=83
x40y79=83
x41y79=5f
x42y79=83
x43y79=5f
x44y79=83
x45y79=5f
x46y79=83
x47y79=83
x48y79=5f
x49y79=83
x50y79=5f
x51y79=83
x52y79=59
x53y79=5f
x54y79=83
x55y79=5f
x56y79=83
x57y79=5f
x58y79=5f
x59y79=5f
x60y79=5f
x61y79=5f
x62y79=59
x63y79=5f
x64y79=5f
x65y79=5f
x66y79=5f
x67y79=59
x68y79=eb
x69y79=00
x70y79=ed
x71y79=e0
x72y79=e0
x73y79=e6
x74y79=e0
x75y79=e0
x76y79=e0
x77y79=e0
x78y79=e6
x79y79=e0
x80y79=e0
x81y79=e6
x82y79=e0
x83y79=e0
x84y79=e6
x85y79=e0
x86y79=e0
x87y79=e6
x88y79=e0
x89y79=e0
x90y79=e6
x91y79=e0
x92y79=e0
x93y79=e6
x94y79=e0
x95y79=e6
x96y79=e0
x97y79=e0
x98y79=e6
x99y79=e0
x100y79=e0
x101y79=e6
x102y79=e0
x103y79=e0
x104y79=e6
x105y79=e0
x106y79=e0
x107y79=e6
x108y79=e0
x109y79=e0
x110y79=e6
x111y79=e0
x112y79=e6
x1y80=e6
x2y80=e0
x3y80=e0
x4y80=e6
x5y80=e0
x6y80=e0
x7y80=e6
x8y80=e0
x9y80=e6
x10y80=e0
x11y80=e0
x12y80=e6
x13y80=e0
x14y80=e6
x15y80=e0
x16y80=e0
x17y80=e6
x18y80=e0
x19y80=e6
x20y80=ff
x21y80=3b
x22y80=00
x23y80=5f
x24y80=a7
x25y80=83
x26y80=83
x27y80=83
x28y80=83
x29y80=83
x30y80=83
x31y80=83
x32y80=83
x33y80=83
x34y80=83
x35y80=83
x36y80=83
x37y80=83
x38y80=83
x39y80=5f
x40y80=83
x41y80=83
x42y80=83
x43y80=83
x44y80=83
x45y80=83
x46y80=5f
x47y80=83
x48y80=83
x49y80=5f
x50y80=83
x51y80=5f
x52y80=83
x53y80=5f
x54y80=83
x55y80=5f
x56y80=5f
x57y80=83
x58y80=59
x59y80=83
x60y80=5f
x61y80=06
x62y80=5f
x63y80=5f
x64y80=06
x65y80=5f
x66y80=5f
x67y80=3a
x68y80=e8
x69y80=e8
x70y80=b5
x71y80=e6
x72y80=e0
x73y80=e0
x74y80=e6
x75y80=e0
x76y80=e6
x77y80=e0
x78y80=e6
x79y80=e0
x80y80=e6
x81y80=e0
x82y80=e6
x83y80=e0
x84y80=e0
x85y80=e6
x86y80=e0
x87y80=e0
x88y80=e6
x89y80=e0
x90y80=e6
x91y80=e0
x92y80=e6
x93y80=e0
x94y80=e6
x95y80=e0
x96y80=e6
x97y80=e0
x98y80=e6
x99y80=e0
x100y80=e6
x101y80=e0
x102y80=e6
x103y80=e0
x104y80=e0
x105y80=e6
x106y80=e0
x107y80=e6
x108y80=e0
x109y80=e6
x110y80=e0
x111y80=e0
x112y80=e0
x1y81=e0
x2y81=e6
x3y81=e0
x4y81=e0
x5y81=e6
x6y81=e0
x7y81=e0
x8y81=e6
x9y81=e0
x10y81=e6
x11y81=e0
x12y81=e0
x13y81=e0
x14y81=e0
x15y81=e6
x16y81=e0
x17y81=e0
x18y81=e6
x19y81=e0
x20y81=e6
x21y81=5f
x22y81=00
x23y81=ee
x24y81=a7
x25y81=83
x26y81=83
x27y81=83
x28y81=83
x29y81=83
x30y81=83
x31y81=83
x32y81=83
x33y81=83
x34y81=83
x35y81=83
x36y81=83
x37y81=83
x38y81=83
x39y81=83
x40y81=83
x41y81=83
x42y81=83
x43y81=83
x44y81=83
x45y81=83
x46y81=83
x47y81=5f
x48y81=83
x49y81=83
x50y81=83
x51y81=83
x52y81=83
x53y81=83
x54y81=5f
x55y81=83
x56y81=06
x57y81=5f
x58y81=83
x59y81=5f
x60y81=83
x61y81=5f
x62y81=83
x63y81=5f
x64y81=5f
x65y81=83
x66y81=59
x67y81=e9
x68y81=00
x69y81=66
x70y81=e6
x71y81=e0
x72y81=e6
x73y81=e0
x74y81=e6
x75y81=e0
x76y81=e6
x77y81=e0
x78y81=e0
x79y81=e6
x80y81=e0
x81y81=e0
x82y81=e0
x83y81=e6
x84y81=e0
x85y81=e6
x86y81=e0
x87y81=e6
x88y81=e0
x89y81=e0
x90y81=e0
x91y81=e6
x92y81=e0
x93y81=e0
x94y81=e0
x95y81=e6
x96y81=e0
x97y81=e0
x98y81=e0
x99y81=e6
x100y81=e0
x101y81=e0
x102y81=e0
x103y81=e6
x104y81=e0
x105y81=e6
x106y81=e0
x107y81=e0
x108y81=e6
x109y81=e0
x110y81=e0
x111y81=e6
x112y81=e0
x1y82=e0
x2y82=e0
x3y82=e6
x4y82=e0
x5y82=e6
x6y82=e0
x7y82=e6
x8y82=e0
x9y82=e0
x10y82=e0
x11y82=e6
x12y82=e0
x13y82=e6
x14y82=e0
x15y82=e0
x16y82=e6
x17y82=e0
x18y82=e0
x19y82=e0
x20y82=e6
x21y82=66
x22y82=00
x23y82=ee
x24y82=a7
x25y82=a7
x26y82=8a
x27y82=a7
x28y82=a7
x29y82=83
x30y82=a7
x31y82=83
x32y82=83
x33y82=83
x34y82=83
x35y82=83
x36y82=83
x37y82=83
x38y82=83
x39y82=83
x40y82=83
x41y82=83
x42y82=83
x43y82=83
x44y82=83
x45y82=83
x46y82=83
x47y82=83
x48y82=83
x49y82=83
x50y82=83
x51y82=5f
x52y82=83
x53y82=83
x54y82=83
x55y82=5f
x56y82=83
x57y82=83
x58y82=5f
x59y82=83
x60y82=5f
x61y82=83
x62y82=5f
x63y82=83
x64y82=5f
x65y82=5f
x66y82=e9
x67y82=00
x68y82=ef
x69y82=e6
x70y82=e0
x71y82=e0
x72y82=e6
x73y82=e0
x74y82=e0
x75y82=e0
x76y82=e0
x77y82=e6
x78y82=e0
x79y82=e0
x80y82=e6
x81y82=e0
x82y82=e6
x83y82=e0
x84y82=e0
x85y82=e0
x86y82=e6
x87y82=e0
x88y82=e6
x89y82=e0
x90y82=e6
x91y82=e0
x92y82=e0
x93y82=e6
x94y82=e0
x95y82=e0
x96y82=e6
x97y82=e0
x98y82=e6
x99y82=e0
x100y82=e0
x101y82=e6
x102y82=e0
x103y82=e6
x104y82=e0
x105y82=e0
x106y82=e6
x107y82=e0
x108y82=e0
x109y82=e6
x110y82=e0
x111y82=e0
x112y82=e6
x1y83=e6
x2y83=e0
x3y83=e0
x4y83=e6
x5y83=e0
x6y83=e0
x7y83=e0
x8y83=e6
x9y83=e0
x10y83=e6
x11y83=e0
x12y83=e6
x13y83=e0
x14y83=e6
x15y83=e0
x16y83=e6
x17y83=e0
x18y83=e6
x19y83=e0
x20y83=e6
x21y83=91
x22y83=e8
x23y83=eb
x24y83=a7
x25y83=8a
x26y83=a7
x27y83=83
x28y83=ae
x29y83=83
x30y83=ae
x31y83=83
x32y83=ae
x33y83=a7
x34y83=83
x35y83=a7
x36y83=83
x37y83=83
x38y83=83
x39y83=83
x40y83=83
x41y83=83
x42y83=83
x43y83=83
x44y83=83
x45y83=83
x46y83=83
x47y83=83
x48y83=83
x49y83=83
x50y83=83
x51y83=83
x52y83=83
x53y83=83
x54y83=83
x55y83=83
x56y83=83
x57y83=83
x58y83=83
x59y83=83
x60y83=83
x61y83=5f
x62y83=83
x63y83=5f
x64y83=83
x65y83=34
x66y83=00
x67y83=eb
x68y83=e0
x69y83=e0
x70y83=e6
x71y83=e0
x72y83=e0
x73y83=e6
x74y83=e0
x75y83=e6
x76y83=e0
x77y83=e6
x78y83=e0
x79y83=e6
x80y83=e0
x81y83=e6
x82y83=e0
x83y83=e6
x84y83=e0
x85y83=e6
x86y83=e0
x87y83=e0
x88y83=e0
x89y83=e6
x90y83=e0
x91y83=e6
x92y83=e0
x93y83=e0
x94y83=e6
x95y83=e0
x96y83=e6
x97y83=e0
x98y83=e0
x99y83=e6
x100y83=e0
x101y83=e0
x102y83=e6
x103y83=e0
x104y83=e6
x105y83=e0
x106y83=e0
x107y83=e6
x108y83=e0
x109y83=e0
x110y83=e6
x111y83=e0
x112y83=e0
x1y84=e0
x2y84=e6
x3y84=e0
x4y84=e0
x5y84=e6
x6y84=e0
x7y84=e6
x8y84=e0
x9y84=e0
x10y84=e0
x11y84=e0
x12y84=e0
x13y84=e6
x14y84=e0
x15y84=e0
x16y84=e0
x17y84=e6
x18y84=e0
x19y84=e0
x20y84=e6
x21y84=df
x22y84=e8
x23y84=e8
x24y84=83
x25y84=a7
x26y84=ae
x27y84=83
x28y84=a7
x29y84=8a
x30y84=a7
x31y84=83
x32y84=a7
x33y84=8a
x34y84=a7
x35y84=8a
x36y84=a7
x37y84=84
x38y84=a7
x39y84=89
x40y84=a7
x41y84=83
x42y84=83
x43y84=83
x44y84=83
x45y84=83
x46y84=83
x47y84=83
x48y84=83
x49y84=83
x50y84=83
x51y84=83
x52y84=83
x53y84=83
x54y84=83
x55y84=83
x56y84=83
x57y84=83
x58y84=5f
x59y84=83
x60y84=83
x61y84=83
x62y84=83
x63y84=83
x64y84=34
x65y84=e8
x66y84=e9
x67y84=b5
x68y84=e6
x69y84=e0
x70y84=e0
x71y84=e6
x72y84=e0
x73y84=e0
x74y84=e6
x75y84=e0
x76y84=e6
x77y84=e0
x78y84=e0
x79y84=e0
x80y84=e0
x81y84=e0
x82y84=e0
x83y84=e6
x84y84=e0
x85y84=e0
x86y84=e6
x87y84=e0
x88y84=e6
x89y84=e0
x90y84=e0
x91y84=e0
x92y84=e6
x93y84=e0
x94y84=e6
x95y84=e0
x96y84=e0
x97y84=e6
x98y84=e0
x99y84=e0
x100y84=e6
x101y84=e0
x102y84=e0
x103y84=e0
x104y84=e0
x105y84=e6
x106y84=e0
x107y84=e0
x108y84=e6
x109y84=e0
x110y84=e0
x111y84=e6
x112y84=e0
x1y85=e0
x2y85=e0
x3y85=e6
x4y85=e0
x5y85=e6
x6y85=e0
x7y85=e0
x8y85=e6
x9y85=e0
x10y85=e6
x11y85=e6
x12y85=e0
x13y85=e0
x14y85=e6
x15y85=e0
x16y85=e6
x17y85=e0
x18y85=e6
x19y85=e0
x20y85=e0
x21y85=ff
x22y85=ef
x23y85=00
x24y85=5f
x25y85=a7
x26y85=83
x27y85=ae
x28y85=a7
x29y85=a7
x30y85=8a
x31y85=a7
x32y85=8a
x33y85=a7
x34y85=83
x35y85=a7
x36y85=8a
x37y85=a7
x38y85=89
x39y85=a8
x40y85=83
x41y85=ae
x42y85=a7
x43y85=83
x44y85=a8
x45y85=83
x46y85=a7
x47y85=83
x48y85=83
x49y85=83
x50y85=83
x51y85=83
x52y85=83
x53y85=83
x54y85=83
x55y85=83
x56y85=83
x57y85=83
x58y85=83
x59y85=83
x60y85=83
x61y85=83
x62y85=83
x63y85=ec
x64y85=00
x65y85=e8
x66y85=91
x67y85=e6
x68y85=e0
x69y85=e6
x70y85=e0
x71y85=e0
x72y85=e6
x73y85=e0
x74y85=e0
x75y85=e6
x76y85=e0
x77y85=e0
x78y85=e6
x79y85=e6
x80y85=e0
x81y85=e6
x82y85=e0
x83y85=e0
x84y85=e6
x85y85=e0
x86y85=e0
x87y85=e6
x88y85=e0
x89y85=e0
x90y85=e6
x91y85=e0
x92y85=e0
x93y85=e6
x94y85=e0
x95y85=e0
x96y85=e6
x97y85=e0
x98y85=e6
x99y85=e0
x100y85=e0
x101y85=e6
x102y85=e0
x103y85=e6
x104y85=e0
x105y85=e6
x106y85=e0
x107y85=e6
x108y85=e0
x109y85=e6
x110y85=e0
x111y85=e6
x112y85=e0
x1y86=e6
x2y86=e0
x3y86=e0
x4y86=e6
x5y86=e0
x6y86=e6
x7y86=e0
x8y86=e0
x9y86=e6
x10y86=e0
x11y86=e0
x12y86=e6
x13y86=e0
x14y86=e0
x15y86=e6
x16y86=e0
x17y86=e0
x18y86=e0
x19y86=e6
x20y86=e0
x21y86=e6
x22y86=8a
x23y86=00
x24y86=ea
x25y86=a7
x26y86=ae
x27y86=83
x28y86=ae
x29y86=83
x30y86=ae
x31y86=a7
x32y86=a7
x33y86=ae
x34y86=83
x35y86=ae
x36y86=a7
x37y86=83
x38y86=a8
x39y86=ad
x40y86=84
x41y86=a7
x42y86=8a
x43y86=a7
x44y86=89
x45y86=a7
x46y86=8a
x47y86=a7
x48y86=83
x49y86=ae
x50y86=83
x51y86=a7
x52y86=83
x53y86=83
x54y86=83
x55y86=83
x56y86=83
x57y86=83
x58y86=83
x59y86=83
x60y86=83
x61y86=83
x62y86=ed
x63y86=e8
x64y86=e8
x65y86=8a
x66y86=e6
x67y86=e0
x68y86=e6
x69y86=e0
x70y86=e6
x71y86=e0
x72y86=e0
x73y86=e6
x74y86=e0
x75y86=e0
x76y86=e6
x77y86=e0
x78y86=e0
x79y86=e0
x80y86=e6
x81y86=e0
x82y86=e6
x83y86=e0
x84y86=e0
x85y86=e6
x86y86=e0
x87y86=e0
x88y86=e6
x89y86=e0
x90y86=e0
x91y86=e6
x92y86=e0
x93y86=e0
x94y86=e6
x95y86=e0
x96y86=e0
x97y86=e6
x98y86=e0
x99y86=e6
x100y86=e0
x101y86=e6
x102y86=e0
x103y86=e6
x104y86=e0
x105y86=e0
x106y86=e6
x107y86=e0
x108y86=e0
x109y86=e0
x110y86=e6
x111y86=e0
x112y86=e0
x1y87=e0
x2y87=e6
x3y87=e0
x4y87=e0
x5y87=e0
x6y87=e0
x7y87=e6
x8y87=e0
x9y87=e0
x10y87=e6
x11y87=e0
x12y87=e0
x13y87=e6
x14y87=e0
x15y87=e0
x16y87=e6
x17y87=e0
x18y87=e6
x19y87=e0
x20y87=e0
x21y87=e6
x22y87=e0
x23y87=eb
x24y87=00
x25y87=5f
x26y87=a7
x27y87=a7
x28y87=83
x29y87=ae
x30y87=a7
x31y87=84
x32y87=ad
x33y87=83
x34y87=a8
x35y87=a7
x36y87=8a
x37y87=a7
x38y87=ad
x39y87=84
x40y87=a7
x41y87=ad
x42y87=83
x43y87=a8
x44y87=ad
x45y87=84
x46y87=a7
x47y87=89
x48y87=a8
x49y87=83
x50y87=a7
x51y87=8a
x52y87=83
x53y87=a7
x54y87=89
x55y87=a7
x56y87=83
x57y87=83
x58y87=83
x59y87=a7
x60y87=83
x61y87=ee
x62y87=e8
x63y87=e8
x64y87=8a
x65y87=e6
x66y87=e0
x67y87=e6
x68y87=e0
x69y87=e0
x70y87=e0
x71y87=e6
x72y87=e0
x73y87=e6
x74y87=e0
x75y87=e6
x76y87=e0
x77y87=e6
x78y87=e0
x79y87=e6
x80y87=e0
x81y87=e0
x82y87=e6
x83y87=e0
x84y87=e6
x85y87=e0
x86y87=e6
x87y87=e0
x88y87=e0
x89y87=e6
x90y87=e0
x91y87=e6
x92y87=e0
x93y87=e6
x94y87=e0
x95y87=e6
x96y87=e0
x97y87=e0
x98y87=e0
x99y87=e0
x100y87=e6
x101y87=e0
x102y87=e0
x103y87=e0
x104y87=e6
x105y87=e0
x106y87=e0
x107y87=e6
x108y87=e0
x109y87=e6
x110y87=e0
x111y87=e0
x112y87=e6
x1y88=e0
x2y88=e0
x3y88=e6
x4y88=e0
x5y88=e6
x6y88=e0
x7y88=e6
x8y88=e0
x9y88=e6
x10y88=e0
x11y88=e6
x12y88=e0
x13y88=e0
x14y88=e6
x15y88=e0
x16y88=e6
x17y88=e0
x18y88=e0
x19y88=e6
x20y88=e0
x21y88=e0
x22y88=e6
x23y88=90
x24y88=00
x25y88=e8
x26y88=83
x27y88=ae
x28y88=a7
x29y88=83
x30y88=ad
x31y88=83
x32y88=a8
x33y88=ad
x34y88=83
x35y88=ad
x36y88=a7
x37y88=8a
x38y88=a7
x39y88=ad
x40y88=84
x41y88=a7
x42y88=ae
x43y88=83
x44y88=a7
x45y88=ad
x46y88=84
x47y88=a7
x48y88=89
x49y88=a8
x50y88=89
x51y88=a7
x52y88=a8
x53y88=89
x54y88=a8
x55y88=83
x56y88=ae
x57y88=83
x58y88=ae
x59y88=83
x60y88=ec
x61y88=e8
x62y88=e8
x63y88=90
x64y88=ff
x65y88=e0
x66y88=e6
x67y88=e0
x68y88=e0
x69y88=e6
x70y88=e0
x71y88=e0
x72y88=e6
x73y88=e0
x74y88=e0
x75y88=e0
x76y88=e6
x77y88=e0
x78y88=e0
x79y88=e6
x80y88=e0
x81y88=e6
x82y88=e0
x83y88=e0
x84y88=e0
x85y88=e0
x86y88=e0
x87y88=e6
x88y88=e0
x89y88=e0
x90y88=e6
x91y88=e0
x92y88=e0
x93y88=e0
x94y88=e0
x95y88=e0
x96y88=e6
x97y88=e0
x98y88=e6
x99y88=e0
x100y88=e0
x101y88=e6
x102y88=e0
x103y88=e6
x104y88=e0
x105y88=e6
x106y88=e0
x107y88=e0
x108y88=e6
x109y88=e0
x110y88=e6
x111y88=e0
x112y88=e0
x1y89=e6
x2y89=e0
x3y89=e6
x4y89=e0
x5y89=e6
x6y89=e0
x7y89=e0
x8y89=e6
x9y89=e0
x10y89=e0
x11y89=e0
x12y89=e6
x13y89=e0
x14y89=e6
x15y89=e0
x16y89=e0
x17y89=e6
x18y89=e0
x19y89=e0
x20y89=e6
x21y89=e0
x22y89=e0
x23y89=e6
x24y89=ef
x25y89=00
x26y89=eb
x27y89=a7
x28y89=8a
x29y89=a7
x30y89=a8
x31y89=ad
x32y89=84
x33y89=a7
x34y89=ae
x35y89=84
x36y89=a7
x37y89=a7
x38y89=84
x39y89=a7
x40y89=ad
x41y89=84
x42y89=a7
x43y89=ad
x44y89=84
x45y89=a7
x46y89=ae
x47y89=83
x48y89=ae
x49y89=a7
x50y89=a7
x51y89=8a
x52y89=a7
x53y89=a7
x54y89=8a
x55y89=a7
x56y89=83
x57y89=ae
x58y89=83
x59y89=e9
x60y89=00
x61y89=ea
x62y89=b5
x63y89=e6
x64y89=e0
x65y89=e6
x66y89=e0
x67y89=e0
x68y89=e6
x69y89=e0
x70y89=e6
x71y89=e0
x72y89=e0
x73y89=e6
x74y89=e0
x75y89=e6
x76y89=e0
x77y89=e0
x78y89=e6
x79y89=e0
x80y89=e0
x81y89=e0
x82y89=e6
x83y89=e0
x84y89=e6
x85y89=e6
x86y89=e0
x87y89=e0
x88y89=e6
x89y89=e0
x90y89=e0
x91y89=e6
x92y89=e0
x93y89=e6
x94y89=e6
x95y89=e0
x96y89=e0
x97y89=e6
x98y89=e0
x99y89=e6
x100y89=e0
x101y89=e0
x102y89=e6
x103y89=e0
x104y89=e0
x105y89=e0
x106y89=e6
x107y89=e0
x108y89=e0
x109y89=e0
x110y89=e0
x111y89=e6
x112y89=e0
x1y90=e0
x2y90=e0
x3y90=e0
x4y90=e6
x5y90=e0
x6y90=e0
x7y90=e6
x8y90=e0
x9y90=e0
x10y90=e6
x11y90=e0
x12y90=e0
x13y90=e6
x14y90=e0
x15y90=e0
x16y90=e6
x17y90=e0
x18y90=e6
x19y90=e0
x20y90=e0
x21y90=e6
x22y90=e0
x23y90=e6
x24y90=e0
x25y90=eb
x26y90=00
x27y90=eb
x28y90=a7
x29y90=ae
x30y90=83
x31y90=a8
x32y90=89
x33y90=a7
x34y90=83
x35y90=ad
x36y90=84
x37y90=ad
x38y90=ae
x39y90=83
x40y90=a8
x41y90=89
x42y90=a7
x43y90=84
x44y90=ad
x45y90=84
x46y90=ad
x47y90=a7
x48y90=83
x49y90=ae
x50y90=83
x51y90=a7
x52y90=8a
x53y90=a7
x54y90=83
x55y90=ae
x56y90=a7
x57y90=ee
x58y90=e8
x59y90=00
x60y90=ed
x61y90=bb
x62y90=ff
x63y90=e0
x64y90=e0
x65y90=e0
x66y90=e6
x67y90=e0
x68y90=e0
x69y90=e6
x70y90=e0
x71y90=e6
x72y90=e0
x73y90=e0
x74y90=e6
x75y90=e0
x76y90=e6
x77y90=e0
x78y90=e0
x79y90=e6
x80y90=e0
x81y90=e6
x82y90=e0
x83y90=e6
x84y90=e0
x85y90=e0
x86y90=e6
x87y90=e0
x88y90=e6
x89y90=e0
x90y90=e6
x91y90=e0
x92y90=e6
x93y90=e0
x94y90=e0
x95y90=e6
x96y90=e0
x97y90=e0
x98y90=e6
x99y90=e0
x100y90=e6
x101y90=e0
x102y90=e0
x103y90=e6
x104y90=e0
x105y90=e6
x106y90=e0
x107y90=e6
x108y90=e0
x109y90=e6
x110y90=e0
x111y90=e6
x112y90=e0
x1y91=e6
x2y91=e0
x3y91=e6
x4y91=e0
x5y91=e0
x6y91=e6
x7y91=e0
x8y91=e6
x9y91=e0
x10y91=e0
x11y91=e6
x12y91=e0
x13y91=e0
x14y91=e6
x15y91=e0
x16y91=e0
x17y91=e6
x18y91=e0
x19y91=e6
x20y91=e0
x21y91=e0
x22y91=e6
x23y91=e0
x24y91=e6
x25y91=bb
x26y91=ea
x27y91=e8
x28y91=eb
x29y91=83
x30y91=ae
x31y91=a7
x32y91=83
x33y91=ae
x34y91=a7
x35y91=ae
x36y91=a7
x37y91=83
x38y91=a7
x39y91=8a
x40y91=a7
x41y91=a7
x42y91=8a
x43y91=a7
x44y91=ad
x45y91=a7
x46y91=84
x47y91=ad
x48y91=a8
x49y91=83
x50y91=ae
x51y91=a7
x52y91=83
x53y91=ae
x54y91=a7
x55y91=5f
x56y91=ea
x57y91=e8
x58y91=00
x59y91=f3
x60y91=e0
x61y91=e6
x62y91=e0
x63y91=e6
x64y91=e0
x65y91=e6
x66y91=e0
x67y91=e6
x68y91=e0
x69y91=e0
x70y91=e0
x71y91=e0
x72y91=e6
x73y91=e0
x74y91=e0
x75y91=e0
x76y91=e0
x77y91=e6
x78y91=e0
x79y91=e0
x80y91=e6
x81y91=e0
x82y91=e0
x83y91=e0
x84y91=e6
x85y91=e0
x86y91=e0
x87y91=e6
x88y91=e0
x89y91=e0
x90y91=e0
x91y91=e0
x92y91=e0
x93y91=e6
x94y91=e0
x95y91=e0
x96y91=e6
x97y91=e0
x98y91=e0
x99y91=e0
x100y91=e0
x101y91=e6
x102y91=e0
x103y91=e0
x104y91=e6
x105y91=e0
x106y91=e0
x107y91=e0
x108y91=e6
x109y91=e0
x110y91=e0
x111y91=e0
x112y91=e6
x1y92=e0
x2y92=e6
x3y92=e0
x4y92=e6
x5y92=e0
x6y92=e0
x7y92=e6
x8y92=e0
x9y92=e6
x10y92=e0
x11y92=e0
x12y92=e6
x13y92=e0
x14y92=e0
x15y92=e6
x16y92=e0
x17y92=e0
x18y92=e0
x19y92=e0
x20y92=e6
x21y92=e0
x22y92=e0
x23y92=e0
x24y92=e0
x25y92=e6
x26y92=b5
x27y92=ec
x28y92=00
x29y92=e9
x30y92=5f
x31y92=a7
x32y92=ae
x33y92=83
x34y92=a8
x35y92=83
x36y92=ae
x37y92=83
x38y92=ae
x39y92=a7
x40y92=89
x41y92=a8
x42y92=a7
x43y92=8a
x44y92=a7
x45y92=84
x46y92=ad
x47y92=83
x48y92=a7
x49y92=89
x50y92=a7
x51y92=ae
x52y92=a7
x53y92=5f
x54y92=ec
x55y92=e8
x56y92=e8
x57y92=ec
x58y92=b5
x59y92=e6
x60y92=e0
x61y92=e0
x62y92=e0
x63y92=e6
x64y92=e0
x65y92=e0
x66y92=e6
x67y92=e0
x68y92=e6
x69y92=e0
x70y92=e6
x71y92=e0
x72y92=e0
x73y92=e6
x74y92=e0
x75y92=e6
x76y92=e0
x77y92=e6
x78y92=e0
x79y92=e6
x80y92=e0
x81y92=e6
x82y92=e0
x83y92=e6
x84y92=e0
x85y92=e6
x86y92=e0
x87y92=e0
x88y92=e6
x89y92=e0
x90y92=e6
x91y92=e6
x92y92=e0
x93y92=e0
x94y92=e6
x95y92=e0
x96y92=e0
x97y92=e6
x98y92=e0
x99y92=e6
x100y92=e0
x101y92=e6
x102y92=e0
x103y92=e6
x104y92=e0
x105y92=e6
x106y92=e0
x107y92=e6
x108y92=e0
x109y92=e6
x110y92=e0
x111y92=e6
x112y92=e0
x1y93=e0
x2y93=e0
x3y93=e0
x4y93=e0
x5y93=e6
x6y93=e0
x7y93=e0
x8y93=e0
x9y93=e0
x10y93=e6
x11y93=e0
x12y93=e6
x13y93=e0
x14y93=e6
x15y93=e0
x16y93=e6
x17y93=e0
x18y93=e6
x19y93=e0
x20y93=e6
x21y93=e0
x22y93=e6
x23y93=e0
x24y93=e6
x25y93=e0
x26y93=e6
x27y93=e0
x28y93=ef
x29y93=00
x30y93=00
x31y93=eb
x32y93=5f
x33y93=a7
x34y93=ae
x35y93=ad
x36y93=83
x37y93=a8
x38y93=83
x39y93=ad
x40y93=a8
x41y93=83
x42y93=ad
x43y93=83
x44y93=a8
x45y93=ad
x46y93=84
x47y93=ad
x48y93=a8
x49y93=ae
x50y93=83
x51y93=5f
x52y93=ec
x53y93=e8
x54y93=e8
x55y93=e9
x56y93=66
x57y93=e0
x58y93=e6
x59y93=e0
x60y93=e6
x61y93=e0
x62y93=e6
x63y93=e0
x64y93=e6
x65y93=e0
x66y93=e0
x67y93=e0
x68y93=e0
x69y93=e6
x70y93=e0
x71y93=e6
x72y93=e0
x73y93=e6
x74y93=e0
x75y93=e6
x76y93=e0
x77y93=e0
x78y93=e6
x79y93=e0
x80y93=e0
x81y93=e0
x82y93=e6
x83y93=e0
x84y93=e0
x85y93=e0
x86y93=e6
x87y93=e0
x88y93=e0
x89y93=e6
x90y93=e0
x91y93=e0
x92y93=e6
x93y93=e0
x94y93=e0
x95y93=e6
x96y93=e0
x97y93=e6
x98y93=e0
x99y93=e6
x100y93=e0
x101y93=e0
x102y93=e6
x103y93=e0
x104y93=e0
x105y93=e0
x106y93=e6
x107y93=e0
x108y93=e0
x109y93=e0
x110y93=e6
x111y93=e0
x112y93=e0
x1y94=e6
x2y94=e0
x3y94=e6
x4y94=e0
x5y94=e6
x6y94=e0
x7y94=e6
x8y94=e0
x9y94=e6
x10y94=e0
x11y94=e0
x12y94=e0
x13y94=e6
x14y94=e0
x15y94=e0
x16y94=e6
x17y94=e0
x18y94=e6
x19y94=e0
x20y94=e0
x21y94=e6
x22y94=e0
x23y94=e0
x24y94=e0
x25y94=e0
x26y94=e0
x27y94=e6
x28y94=e0
x29y94=f7
x30y94=ea
x31y94=00
x32y94=00
x33y94=ea
x34y94=ef
x35y94=83
x36y94=a7
x37y94=ad
x38y94=ae
x39y94=a8
x40y94=ad
x41y94=ae
x42y94=a8
x43y94=ad
x44y94=a8
x45y94=ad
x46y94=a7
x47y94=83
x48y94=5f
x49y94=ed
x50y94=e9
x51y94=00
x52y94=00
x53y94=ea
x54y94=65
x55y94=e0
x56y94=e6
x57y94=e0
x58y94=e0
x59y94=e0
x60y94=e6
x61y94=e0
x62y94=e0
x63y94=e0
x64y94=e0
x65y94=e6
x66y94=e0
x67y94=e6
x68y94=e0
x69y94=e0
x70y94=e6
x71y94=e0
x72y94=e0
x73y94=e0
x74y94=e6
x75y94=e0
x76y94=e0
x77y94=e6
x78y94=e0
x79y94=e0
x80y94=e6
x81y94=e0
x82y94=e0
x83y94=e6
x84y94=e0
x85y94=e6
x86y94=e0
x87y94=e6
x88y94=e0
x89y94=e0
x90y94=e6
x91y94=e0
x92y94=e0
x93y94=e6
x94y94=e0
x95y94=e6
x96y94=e0
x97y94=e0
x98y94=e6
x99y94=e0
x100y94=e6
x101y94=e0
x102y94=e0
x103y94=e6
x104y94=e0
x105y94=e6
x106y94=e0
x107y94=e6
x108y94=e0
x109y94=e6
x110y94=e0
x111y94=e0
x112y94=e6
x1y95=e0
x2y95=e6
x3y95=e0
x4y95=e6
x5y95=e0
x6y95=e0
x7y95=e6
x8y95=e0
x9y95=e0
x10y95=e6
x11y95=e0
x12y95=e6
x13y95=e0
x14y95=e0
x15y95=e6
x16y95=e0
x17y95=e0
x18y95=e0
x19y95=e6
x20y95=e0
x21y95=e0
x22y95=e6
x23y95=e0
x24y95=e6
x25y95=e6
x26y95=e0
x27y95=e0
x28y95=e6
x29y95=e6
x30y95=e0
x31y95=f4
x32y95=eb
x33y95=e8
x34y95=e8
x35y95=00
x36y95=e9
x37y95=ec
x38y95=ee
x39y95=5f
x40y95=ef
x41y95=5f
x42y95=5f
x43y95=ee
x44y95=ee
x45y95=ec
x46y95=ea
x47y95=00
x48y95=00
x49y95=e8
x50y95=00
x51y95=ee
x52y95=8a
x53y95=e0
x54y95=ff
x55y95=e0
x56y95=e0
x57y95=e6
x58y95=e0
x59y95=e6
x60y95=e0
x61y95=e6
x62y95=e0
x63y95=e6
x64y95=e0
x65y95=e6
x66y95=e0
x67y95=e0
x68y95=e6
x69y95=e0
x70y95=e0
x71y95=e6
x72y95=e0
x73y95=e6
x74y95=e0
x75y95=e0
x76y95=e6
x77y95=e0
x78y95=e6
x79y95=e0
x80y95=e6
x81y95=e0
x82y95=e6
x83y95=e0
x84y95=e6
x85y95=e0
x86y95=e0
x87y95=e0
x88y95=e6
x89y95=e0
x90y95=e0
x91y95=e6
x92y95=e0
x93y95=e6
x94y95=e0
x95y95=e0
x96y95=e6
x97y95=e0
x98y95=e0
x99y95=e0
x100y95=e0
x101y95=e6
x102y95=e0
x103y95=e0
x104y95=e6
x105y95=e0
x106y95=e0
x107y95=e0
x108y95=e6
x109y95=e0
x110y95=e6
x111y95=e0
x112y95=e0
x1y96=e0
x2y96=e0
x3y96=e6
x4y96=e0
x5y96=e0
x6y96=e6
x7y96=e0
x8y96=e6
x9y96=e0
x10y96=e0
x11y96=e6
x12y96=e0
x13y96=e6
x14y96=e0
x15y96=e0
x16y96=e6
x17y96=e0
x18y96=e6
x19y96=e0
x20y96=e6
x21y96=e0
x22y96=e0
x23y96=e6
x24y96=e0
x25y96=e0
x26y96=e6
x27y96=e0
x28y96=e0
x29y96=e0
x30y96=e6
x31y96=e6
x32y96=e0
x33y96=90
x34y96=f1
x35y96=eb
x36y96=00
x37y96=e8
x38y96=00
x39y96=00
x40y96=e8
x41y96=00
x42y96=00
x43y96=e8
x44y96=e8
x45y96=e8
x46y96=e8
x47y96=ea
x48y96=ee
x49y96=8a
x50y96=b5
x51y96=e6
x52y96=e6
x53y96=e0
x54y96=e0
x55y96=e6
x56y96=e0
x57y96=e0
x58y96=e6
x59y96=e0
x60y96=e0
x61y96=e0
x62y96=e6
x63y96=e0
x64y96=e6
x65y96=e0
x66y96=e6
x67y96=e0
x68y96=e0
x69y96=e6
x70y96=e0
x71y96=e6
x72y96=e0
x73y96=e0
x74y96=e6
x75y96=e0
x76y96=e0
x77y96=e6
x78y96=e0
x79y96=e0
x80y96=e0
x81y96=e6
x82y96=e0
x83y96=e0
x84y96=e0
x85y96=e6
x86y96=e0
x87y96=e6
x88y96=e0
x89y96=e6
x90y96=e0
x91y96=e0
x92y96=e6
x93y96=e0
x94y96=e0
x95y96=e6
x96y96=e0
x97y96=e6
x98y96=e0
x99y96=e6
x100y96=e0
x101y96=e0
x102y96=e6
x103y96=e0
x104y96=e0
x105y96=e6
x106y96=e0
x107y96=e6
x108y96=e0
x109y96=e0
x110y96=e0
x111y96=e6
x112y96=e0
x1y97=e6
x2y97=e0
x3y97=e0
x4y97=e6
x5y97=e0
x6y97=e0
x7y97=e0
x8y97=e0
x9y97=e6
x10y97=e0
x11y97=e0
x12y97=e6
x13y97=e0
x14y97=e6
x15y97=e0
x16y97=e0
x17y97=e6
x18y97=e0
x19y97=e0
x20y97=e0
x21y97=e6
x22y97=e0
x23y97=e0
x24y97=e6
x25y97=e0
x26y97=e0
x27y97=e6
x28y97=e0
x29y97=e6
x30y97=e0
x31y97=e0
x32y97=e0
x33y97=e6
x34y97=ff
x35y97=e0
x36y97=bb
x37y97=8a
x38y97=8a
x39y97=f2
x40y97=5f
x41y97=3b
x42y97=5f
x43y97=5f
x44y97=f4
x45y97=90
x46y97=b5
x47y97=e0
x48y97=e6
x49y97=e6
x50y97=e6
x51y97=e0
x52y97=e0
x53y97=e6
x54y97=e0
x55y97=e0
x56y97=e6
x57y97=e0
x58y97=e0
x59y97=e6
x60y97=e0
x61y97=e6
x62y97=e0
x63y97=e0
x64y97=e0
x65y97=e0
x66y97=e0
x67y97=e6
x68y97=e0
x69y97=e6
x70y97=e0
x71y97=e0
x72y97=e6
x73y97=e0
x74y97=e0
x75y97=e6
x76y97=e0
x77y97=e0
x78y97=e6
x79y97=e0
x80y97=e6
x81y97=e0
x82y97=e6
x83y97=e0
x84y97=e6
x85y97=e0
x86y97=e6
x87y97=e0
x88y97=e0
x89y97=e0
x90y97=e6
x91y97=e0
x92y97=e0
x93y97=e6
x94y97=e0
x95y97=e0
x96y97=e6
x97y97=e0
x98y97=e0
x99y97=e6
x100y97=e0
x101y97=e6
x102y97=e0
x103y97=e6
x104y97=e0
x105y97=e0
x106y97=e6
x107y97=e0
x108y97=e6
x109y97=e0
x110y97=e6
x111y97=e0
x112y97=e6
x1y98=e0
x2y98=e6
x3y98=e0
x4y98=e0
x5y98=e6
x6y98=e0
x7y98=e6
x8y98=e0
x9y98=e6
x10y98=e0
x11y98=e6
x12y98=e0
x13y98=e0
x14y98=e0
x15y98=e6
x16y98=e0
x17y98=e0
x18y98=e6
x19y98=e0
x20y98=e6
x21y98=e0
x22y98=e6
x23y98=e0
x24y98=e0
x25y98=e6
x26y98=e0
x27y98=e6
x28y98=e0
x29y98=e0
x30y98=e6
x31y98=e0
x32y98=e6
x33y98=e0
x34y98=e0
x35y98=e6
x36y98=e0
x37y98=e6
x38y98=e6
x39y98=ff
x40y98=e6
x41y98=e6
x42y98=ff
x43y98=e6
x44y98=e6
x45y98=ff
x46y98=e6
x47y98=e0
x48y98=e0
x49y98=e0
x50y98=e0
x51y98=e0
x52y98=e6
x53y98=e0
x54y98=e6
x55y98=e0
x56y98=e0
x57y98=e6
x58y98=e0
x59y98=e6
x60y98=e0
x61y98=e0
x62y98=e6
x63y98=e0
x64y98=e6
x65y98=e6
x66y98=e0
x67y98=e6
x68y98=e0
x69y98=e0
x70y98=e6
x71y98=e0
x72y98=e0
x73y98=e6
x74y98=e0
x75y98=e6
x76y98=e0
x77y98=e6
x78y98=e0
x79y98=e6
x80y98=e0
x81y98=e0
x82y98=e0
x83y98=e6
x84y98=e0
x85y98=e0
x86y98=e0
x87y98=e6
x88y98=e0
x89y98=e6
x90y98=e0
x91y98=e6
x92y98=e0
x93y98=e0
x94y98=e6
x95y98=e0
x96y98=e0
x97y98=e6
x98y98=e0
x99y98=e0
x100y98=e6
x101y98=e0
x102y98=e0
x103y98=e0
x104y98=e6
x105y98=e0
x106y98=e0
x107y98=e6
x108y98=e0
x109y98=e0
x110y98=e6
x111y98=e0
x112y98=e0
x1y99=e0
x2y99=e0
x3y99=e6
x4y99=e0
x5y99=e0
x6y99=e6
x7y99=e0
x8y99=e6
x9y99=e0
x10y99=e0
x11y99=e0
x12y99=e6
x13y99=e0
x14y99=e6
x15y99=e0
x16y99=e6
x17y99=e0
x18y99=e0
x19y99=e6
x20y99=e0
x21y99=e0
x22y99=e0
x23y99=e6
x24y99=e0
x25y99=e6
x26y99=e0
x27y99=e0
x28y99=e6
x29y99=e0
x30y99=e0
x31y99=e0
x32y99=e0
x33y99=e6
x34y99=e0
x35y99=e0
x36y99=e6
x37y99=e0
x38y99=e0
x39y99=e0
x40y99=e0
x41y99=e0
x42y99=e0
x43y99=e0
x44y99=e0
x45y99=e0
x46y99=e0
x47y99=e6
x48y99=e0
x49y99=e6
x50y99=e0
x51y99=e6
x52y99=e0
x53y99=e0
x54y99=e0
x55y99=e6
x56y99=e0
x57y99=e6
x58y99=e0
x59y99=e0
x60y99=e6
x61y99=e0
x62y99=e0
x63y99=e6
x64y99=e0
x65y99=e0
x66y99=e0
x67y99=e0
x68y99=e6
x69y99=e0
x70y99=e0
x71y99=e6
x72y99=e0
x73y99=e0
x74y99=e6
x75y99=e0
x76y99=e0
x77y99=e0
x78y99=e0
x79y99=e0
x80y99=e6
x81y99=e0
x82y99=e6
x83y99=e0
x84y99=e6
x85y99=e0
x86y99=e6
x87y99=e0
x88y99=e6
x89y99=e0
x90y99=e0
x91y99=e0
x92y99=e6
x93y99=e0
x94y99=e6
x95y99=e0
x96y99=e6
x97y99=e0
x98y99=e6
x99y99=e0
x100y99=e0
x101y99=e6
x102y99=e0
x103y99=e6
x104y99=e0
x105y99=e6
x106y99=e0
x107y99=e0
x108y99=e6
x109y99=e0
x110y99=e0
x111y99=e6
x112y99=e0
x1y100=e6
x2y100=e0
x3y100=e0
x4y100=e6
x5y100=e0
x6y100=e0
x7y100=e6
x8y100=e0
x9y100=e0
x10y100=e6
x11y100=e0
x12y100=e0
x13y100=e6
x14y100=e0
x15y100=e0
x16y100=e0
x17y100=e6
x18y100=e0
x19y100=e0
x20y100=e6
x21y100=e0
x22y100=e6
x23y100=e0
x24y100=e0
x25y100=e0
x26y100=e6
x27y100=e0
x28y100=e0
x29y100=e6
x30y100=e0
x31y100=e6
x32y100=e0
x33y100=e0
x34y100=e6
x35y100=e0
x36y100=e0
x37y100=e6
x38y100=e0
x39y100=e6
x40y100=e0
x41y100=e6
x42y100=e0
x43y100=e6
x44y100=e0
x45y100=e6
x46y100=e0
x47y100=e0
x48y100=e6
x49y100=e0
x50y100=e0
x51y100=e0
x52y100=e6
x53y100=e0
x54y100=e6
x55y100=e0
x56y100=e0
x57y100=e0
x58y100=e6
x59y100=e0
x60y100=e0
x61y100=e6
x62y100=e0
x63y100=e0
x64y100=e6
x65y100=e0
x66y100=e6
x67y100=e0
x68y100=e0
x69y100=e6
x70y100=e0
x71y100=e0
x72y100=e6
x73y100=e0
x74y100=e0
x75y100=e6
x76y100=e0
x77y100=e6
x78y100=e6
x79y100=e0
x80y100=e0
x81y100=e6
x82y100=e0
x83y100=e0
x84y100=e0
x85y100=e6
x86y100=e0
x87y100=e0
x88y100=e0
x89y100=e6
x90y100=e0
x91y100=e6
x92y100=e0
x93y100=e0
x94y100=e0
x95y100=e6
x96y100=e0
x97y100=e0
x98y100=e0
x99y100=e6
x100y100=e0
x101y100=e0
x102y100=e6
x103y100=e0
x104y100=e0
x105y100=e0
x106y100=e6
x107y100=e0
x108y100=e0
x109y100=e6
x110y100=e0
x111y100=e0
x112y100=e6
x1y101=e0
x2y101=e6
x3y101=e0
x4y101=e0
x5y101=e6
x6y101=e0
x7y101=e0
x8y101=e6
x9y101=e0
x10y101=e6
x11y101=e0
x12y101=e6
x13y101=e0
x14y101=e0
x15y101=e6
x16y101=e0
x17y101=e6
x18y101=e0
x19y101=e6
x20y101=e0
x21y101=e6
x22y101=e0
x23y101=e6
x24y101=e0
x25y101=e6
x26y101=e0
x27y101=e6
x28y101=e0
x29y101=e0
x30y101=e6
x31y101=e0
x32y101=e6
x33y101=e0
x34y101=e0
x35y101=e6
x36y101=e0
x37y101=e0
x38y101=e6
x39y101=e0
x40y101=e0
x41y101=e6
x42y101=e0
x43y101=e0
x44y101=e6
x45y101=e0
x46y101=e6
x47y101=e0
x48y101=e0
x49y101=e6
x50y101=e0
x51y101=e6
x52y101=e0
x53y101=e0
x54y101=e0
x55y101=e6
x56y101=e0
x57y101=e6
x58y101=e0
x59y101=e6
x60y101=e0
x61y101=e0
x62y101=e6
x63y101=e0
x64y101=e6
x65y101=e0
x66y101=e6
x67y101=e0
x68y101=e6
x69y101=e0
x70y101=e6
x71y101=e0
x72y101=e0
x73y101=e6
x74y101=e0
x75y101=e6
x76y101=e0
x77y101=e0
x78y101=e0
x79y101=e6
x80y101=e0
x81y101=e0
x82y101=e6
x83y101=e0
x84y101=e6
x85y101=e0
x86y101=e6
x87y101=e0
x88y101=e6
x89y101=e0
x90y101=e6
x91y101=e0
x92y101=e6
x93y101=e0
x94y101=e6
x95y101=e0
x96y101=e0
x97y101=e6
x98y101=e0
x99y101=e0
x100y101=e6
x101y101=e0
x102y101=e0
x103y101=e6
x104y101=e0
x105y101=e6
x106y101=e0
x107y101=e6
x108y101=e0
x109y101=e0
x110y101=e6
x111y101=e0
x112y101=e0
x1y102=e0
x2y102=e0
x3y102=e6
x4y102=e0
x5y102=e6
x6y102=e0
x7y102=e6
x8y102=e0
x9y102=e0
x10y102=e0
x11y102=e6
x12y102=e0
x13y102=e0
x14y102=e6
x15y102=e0
x16y102=e0
x17y102=e0
x18y102=e6
x19y102=e0
x20y102=e0
x21y102=e0
x22y102=e0
x23y102=e6
x24y102=e0
x25y102=e0
x26y102=e6
x27y102=e0
x28y102=e0
x29y102=e6
x30y102=e0
x31y102=e0
x32y102=e0
x33y102=e6
x34y102=e0
x35y102=e0
x36y102=e6
x37y102=e0
x38y102=e0
x39y102=e6
x40y102=e0
x41y102=e0
x42y102=e6
x43y102=e0
x44y102=e0
x45y102=e6
x46y102=e0
x47y102=e0
x48y102=e6
x49y102=e0
x50y102=e0
x51y102=e6
x52y102=e0
x53y102=e6
x54y102=e0
x55y102=e6
x56y102=e0
x57y102=e0
x58y102=e6
x59y102=e0
x60y102=e6
x61y102=e0
x62y102=e0
x63y102=e6
x64y102=e0
x65y102=e0
x66y102=e0
x67y102=e6
x68y102=e0
x69y102=e0
x70y102=e0
x71y102=e6
x72y102=e0
x73y102=e6
x74y102=e0
x75y102=e0
x76y102=e6
x77y102=e0
x78y102=e6
x79y102=e0
x80y102=e6
x81y102=e0
x82y102=e6
x83y102=e0
x84y102=e0
x85y102=e6
x86y102=e0
x87y102=e0
x88y102=e6
x89y102=e0
x90y102=e0
x91y102=e0
x92y102=e0
x93y102=e6
x94y102=e0
x95y102=e6
x96y102=e0
x97y102=e0
x98y102=e6
x99y102=e0
x100y102=e6
x101y102=e0
x102y102=e6
x103y102=e0
x104y102=e0
x105y102=e0
x106y102=e6
x107y102=e0
x108y102=e6
x109y102=e0
x110y102=e0
x111y102=e6
x112y102=e0
x1y103=e6
x2y103=e0
x3y103=e6
x4y103=e0
x5y103=e0
x6y103=e6
x7y103=e0
x8y103=e0
x9y103=e6
x10y103=e0
x11y103=e0
x12y103=e6
x13y103=e0
x14y103=e0
x15y103=e6
x16y103=e0
x17y103=e6
x18y103=e0
x19y103=e0
x20y103=e6
x21y103=e0
x22y103=e6
x23y103=e0
x24y103=e6
x25y103=e0
x26y103=e0
x27y103=e6
x28y103=e0
x29y103=e0
x30y103=e6
x31y103=e0
x32y103=e6
x33y103=e0
x34y103=e6
x35y103=e0
x36y103=e0
x37y103=e6
x38y103=e0
x39y103=e0
x40y103=e6
x41y103=e0
x42y103=e0
x43y103=e6
x44y103=e0
x45y103=e0
x46y103=e6
x47y103=e0
x48y103=e0
x49y103=e6
x50y103=e0
x51y103=e0
x52y103=e6
x53y103=e0
x54y103=e0
x55y103=e0
x56y103=e6
x57y103=e0
x58y103=e0
x59y103=e0
x60y103=e0
x61y103=e6
x62y103=e0
x63y103=e0
x64y103=e6
x65y103=e0
x66y103=e6
x67y103=e0
x68y103=e0
x69y103=e6
x70y103=e0
x71y103=e6
x72y103=e0
x73y103=e0
x74y103=e6
x75y103=e0
x76y103=e0
x77y103=e6
x78y103=e0
x79y103=e0
x80y103=e0
x81y103=e6
x82y103=e0
x83y103=e6
x84y103=e0
x85y103=e0
x86y103=e6
x87y103=e0
x88y103=e0
x89y103=e6
x90y103=e0
x91y103=e6
x92y103=e0
x93y103=e0
x94y103=e6
x95y103=e0
x96y103=e6
x97y103=e0
x98y103=e0
x99y103=e6
x100y103=e0
x101y103=e0
x102y103=e0
x103y103=e6
x104y103=e0
x105y103=e6
x106y103=e0
x107y103=e0
x108y103=e0
x109y103=e6
x110y103=e0
x111y103=e6
x112y103=e0
x1y104=e0
x2y104=e0
x3y104=e0
x4y104=e6
x5y104=e0
x6y104=e0
x7y104=e6
x8y104=e0
x9y104=e6
x10y104=e0
x11y104=e6
x12y104=e0
x13y104=e6
x14y104=e0
x15y104=e0
x16y104=e6
x17y104=e0
x18y104=e6
x19y104=e0
x20y104=e0
x21y104=e6
x22y104=e0
x23y104=e0
x24y104=e0
x25y104=e6
x26y104=e0
x27y104=e0
x28y104=e6
x29y104=e0
x30y104=e0
x31y104=e6
x32y104=e0
x33y104=e0
x34y104=e0
x35y104=e6
x36y104=e0
x37y104=e6
x38y104=e0
x39y104=e6
x40y104=e0
x41y104=e6
x42y104=e0
x43y104=e6
x44y104=e0
x45y104=e6
x46y104=e0
x47y104=e6
x48y104=e0
x49y104=e0
x50y104=e6
x51y104=e0
x52y104=e0
x53y104=e6
x54y104=e0
x55y104=e6
x56y104=e0
x57y104=e6
x58y104=e0
x59y104=e6
x60y104=e0
x61y104=e6
x62y104=e0
x63y104=e6
x64y104=e0
x65y104=e6
x66y104=e0
x67y104=e0
x68y104=e6
x69y104=e0
x70y104=e6
x71y104=e0
x72y104=e0
x73y104=e6
x74y104=e0
x75y104=e6
x76y104=e0
x77y104=e0
x78y104=e6
x79y104=e0
x80y104=e6
x81y104=e0
x82y104=e0
x83y104=e0
x84y104=e6
x85y104=e0
x86y104=e0
x87y104=e6
x88y104=e0
x89y104=e0
x90y104=e6
x91y104=e0
x92y104=e6
x93y104=e0
x94y104=e0
x95y104=e0
x96y104=e0
x97y104=e6
x98y104=e0
x99y104=e0
x100y104=e6
x101y104=e0
x102y104=e6
x103y104=e0
x104y104=e6
x105y104=e0
x106y104=e0
x107y104=e6
x108y104=e0
x109y104=e6
x110y104=e0
x111y104=e0
x112y104=e6
x1y105=e6
x2y105=e0
x3y105=e6
x4y105=e0
x5y105=e6
x6y105=e0
x7y105=e0
x8y105=e6
x9y105=e0
x10y105=e0
x11y105=e0
x12y105=e0
x13y105=e0
x14y105=e6
x15y105=e0
x16y105=e0
x17y105=e0
x18y105=e0
x19y105=e6
x20y105=e0
x21y105=e0
x22y105=e6
x23y105=e0
x24y105=e6
x25y105=e0
x26y105=e6
x27y105=e0
x28y105=e0
x29y105=e6
x30y105=e0
x31y105=e0
x32y105=e6
x33y105=e0
x34y105=e6
x35y105=e0
x36y105=e6
x37y105=e0
x38y105=e0
x39y105=e0
x40y105=e6
x41y105=e0
x42y105=e0
x43y105=e0
x44y105=e6
x45y105=e0
x46y105=e0
x47y105=e0
x48y105=e6
x49y105=e0
x50y105=e0
x51y105=e6
x52y105=e0
x53y105=e6
x54y105=e0
x55y105=e0
x56y105=e6
x57y105=e0
x58y105=e0
x59y105=e6
x60y105=e0
x61y105=e0
x62y105=e6
x63y105=e0
x64y105=e0
x65y105=e0
x66y105=e6
x67y105=e0
x68y105=e0
x69y105=e6
x70y105=e0
x71y105=e0
x72y105=e6
x73y105=e0
x74y105=e0
x75y105=e0
x76y105=e6
x77y105=e0
x78y105=e0
x79y105=e6
x80y105=e0
x81y105=e0
x82y105=e6
x83y105=e0
x84y105=e0
x85y105=e6
x86y105=e0
x87y105=e0
x88y105=e6
x89y105=e0
x90y105=e0
x91y105=e6
x92y105=e0
x93y105=e6
x94y105=e0
x95y105=e6
x96y105=e0
x97y105=e6
x98y105=e0
x99y105=e6
x100y105=e0
x101y105=e6
x102y105=e0
x103y105=e0
x104y105=e0
x105y105=e6
x106y105=e0
x107y105=e0
x108y105=e6
x109y105=e0
x110y105=e0
x111y105=e6
x112y105=e0
x1y106=e0
x2y106=e6
x3y106=e0
x4y106=e0
x5y106=e0
x6y106=e6
x7y106=e0
x8y106=e0
x9y106=e6
x10y106=e0
x11y106=e6
x12y106=e6
x13y106=e0
x14y106=e0
x15y106=e6
x16y106=e0
x17y106=e6
x18y106=e0
x19y106=e6
x20y106=e0
x21y106=e6
x22y106=e0
x23y106=e6
x24y106=e0
x25y106=e0
x26y106=e0
x27y106=e6
x28y106=e0
x29y106=e0
x30y106=e6
x31y106=e0
x32y106=e0
x33y106=e6
x34y106=e0
x35y106=e0
x36y106=e0
x37y106=e6
x38y106=e0
x39y106=e6
x40y106=e0
x41y106=e0
x42y106=e6
x43y106=e0
x44y106=e0
x45y106=e6
x46y106=e0
x47y106=e6
x48y106=e0
x49y106=e6
x50y106=e0
x51y106=e0
x52y106=e6
x53y106=e0
x54y106=e6
x55y106=e0
x56y106=e0
x57y106=e6
x58y106=e0
x59y106=e0
x60y106=e6
x61y106=e0
x62y106=e0
x63y106=e6
x64y106=e0
x65y106=e6
x66y106=e0
x67y106=e6
x68y106=e0
x69y106=e0
x70y106=e6
x71y106=e0
x72y106=e0
x73y106=e6
x74y106=e0
x75y106=e6
x76y106=e0
x77y106=e6
x78y106=e0
x79y106=e0
x80y106=e6
x81y106=e0
x82y106=e6
x83y106=e0
x84y106=e6
x85y106=e0
x86y106=e6
x87y106=e0
x88y106=e0
x89y106=e6
x90y106=e0
x91y106=e0
x92y106=e0
x93y106=e6
x94y106=e0
x95y106=e6
x96y106=e0
x97y106=e0
x98y106=e6
x99y106=e0
x100y106=e0
x101y106=e0
x102y106=e6
x103y106=e0
x104y106=e6
x105y106=e0
x106y106=e6
x107y106=e0
x108y106=e0
x109y106=e6
x110y106=e0
x111y106=e0
x112y106=e0
x1y107=e0
x2y107=e0
x3y107=e6
x4y107=e0
x5y107=e6
x6y107=e0
x7y107=e6
x8y107=e0
x9y107=e0
x10y107=e6
x11y107=e0
x12y107=e0
x13y107=e6
x14y107=e0
x15y107=e6
x16y107=e0
x17y107=e6
x18y107=e0
x19y107=e0
x20y107=e6
x21y107=e0
x22y107=e0
x23y107=e0
x24y107=e6
x25y107=e0
x26y107=e6
x27y107=e0
x28y107=e6
x29y107=e0
x30y107=e0
x31y107=e6
x32y107=e0
x33y107=e0
x34y107=e6
x35y107=e0
x36y107=e6
x37y107=e0
x38y107=e6
x39y107=e0
x40y107=e6
x41y107=e0
x42y107=e6
x43y107=e0
x44y107=e6
x45y107=e0
x46y107=e0
x47y107=e0
x48y107=e6
x49y107=e0
x50y107=e6
x51y107=e0
x52y107=e0
x53y107=e0
x54y107=e0
x55y107=e6
x56y107=e0
x57y107=e0
x58y107=e6
x59y107=e0
x60y107=e0
x61y107=e6
x62y107=e0
x63y107=e0
x64y107=e6
x65y107=e0
x66y107=e0
x67y107=e0
x68y107=e6
x69y107=e0
x70y107=e0
x71y107=e6
x72y107=e0
x73y107=e0
x74y107=e6
x75y107=e0
x76y107=e0
x77y107=e0
x78y107=e6
x79y107=e0
x80y107=e0
x81y107=e6
x82y107=e0
x83y107=e0
x84y107=e0
x85y107=e0
x86y107=e0
x87y107=e6
x88y107=e0
x89y107=e0
x90y107=e6
x91y107=e0
x92y107=e6
x93y107=e0
x94y107=e0
x95y107=e0
x96y107=e6
x97y107=e0
x98y107=e0
x99y107=e6
x100y107=e0
x101y107=e6
x102y107=e0
x103y107=e6
x104y107=e0
x105y107=e0
x106y107=e0
x107y107=e6
x108y107=e0
x109y107=e0
x110y107=e6
x111y107=e0
x112y107=e6
x1y108=e6
x2y108=e0
x3y108=e0
x4y108=e6
x5y108=e0
x6y108=e0
x7y108=e0
x8y108=e6
x9y108=e0
x10y108=e0
x11y108=e6
x12y108=e0
x13y108=e0
x14y108=e6
x15y108=e0
x16y108=e0
x17y108=e0
x18y108=e6
x19y108=e0
x20y108=e0
x21y108=e6
x22y108=e0
x23y108=e6
x24y108=e0
x25y108=e6
x26y108=e0
x27y108=e0
x28y108=e0
x29y108=e6
x30y108=e0
x31y108=e6
x32y108=e0
x33y108=e6
x34y108=e0
x35y108=e6
x36y108=e0
x37y108=e0
x38y108=e0
x39y108=e0
x40y108=e0
x41y108=e6
x42y108=e0
x43y108=e0
x44y108=e0
x45y108=e6
x46y108=e0
x47y108=e6
x48y108=e0
x49y108=e0
x50y108=e0
x51y108=e6
x52y108=e0
x53y108=e6
x54y108=e0
x55y108=e0
x56y108=e6
x57y108=e0
x58y108=e0
x59y108=e6
x60y108=e0
x61y108=e6
x62y108=e0
x63y108=e6
x64y108=e0
x65y108=e0
x66y108=e6
x67y108=e0
x68y108=e6
x69y108=e0
x70y108=e6
x71y108=e0
x72y108=e6
x73y108=e0
x74y108=e0
x75y108=e6
x76y108=e0
x77y108=e6
x78y108=e0
x79y108=e6
x80y108=e0
x81y108=e0
x82y108=e6
x83y108=e0
x84y108=e6
x85y108=e6
x86y108=e0
x87y108=e0
x88y108=e6
x89y108=e0
x90y108=e6
x91y108=e0
x92y108=e0
x93y108=e6
x94y108=e0
x95y108=e6
x96y108=e0
x97y108=e6
x98y108=e0
x99y108=e0
x100y108=e6
x101y108=e0
x102y108=e0
x103y108=e0
x104y108=e6
x105y108=e0
x106y108=e6
x107y108=e0
x108y108=e6
x109y108=e0
x110y108=e6
x111y108=e0
x112y108=e0
x1y109=e0
x2y109=e6
x3y109=e0
x4y109=e0
x5y109=e6
x6y109=e0
x7y109=e6
x8y109=e0
x9y109=e6
x10y109=e0
x11y109=e0
x12y109=e6
x13y109=e0
x14y109=e0
x15y109=e6
x16y109=e0
x17y109=e6
x18y109=e0
x19y109=e6
x20y109=e0
x21y109=e0
x22y109=e6
x23y109=e0
x24y109=e0
x25y109=e0
x26y109=e6
x27y109=e0
x28y109=e6
x29y109=e0
x30y109=e6
x31y109=e0
x32y109=e0
x33y109=e0
x34y109=e0
x35y109=e0
x36y109=e6
x37y109=e0
x38y109=e6
x39y109=e6
x40y109=e0
x41y109=e0
x42y109=e6
x43y109=e0
x44y109=e6
x45y109=e0
x46y109=e6
x47y109=e0
x48y109=e0
x49y109=e6
x50y109=e0
x51y109=e6
x52y109=e0
x53y109=e0
x54y109=e6
x55y109=e0
x56y109=e6
x57y109=e0
x58y109=e6
x59y109=e0
x60y109=e6
x61y109=e0
x62y109=e0
x63y109=e0
x64y109=e6
x65y109=e0
x66y109=e0
x67y109=e6
x68y109=e0
x69y109=e0
x70y109=e0
x71y109=e6
x72y109=e0
x73y109=e6
x74y109=e0
x75y109=e0
x76y109=e6
x77y109=e0
x78y109=e0
x79y109=e6
x80y109=e0
x81y109=e6
x82y109=e0
x83y109=e6
x84y109=e0
x85y109=e0
x86y109=e6
x87y109=e0
x88y109=e6
x89y109=e0
x90y109=e0
x91y109=e6
x92y109=e0
x93y109=e0
x94y109=e6
x95y109=e0
x96y109=e0
x97y109=e0
x98y109=e6
x99y109=e0
x100y109=e0
x101y109=e6
x102y109=e0
x103y109=e6
x104y109=e0
x105y109=e6
x106y109=e0
x107y109=e0
x108y109=e0
x109y109=e6
x110y109=e0
x111y109=e6
x112y109=e0
x1y110=e0
x2y110=e0
x3y110=e6
x4y110=e0
x5y110=e6
x6y110=e0
x7y110=e0
x8y110=e6
x9y110=e0
x10y110=e6
x11y110=e0
x12y110=e0
x13y110=e6
x14y110=e0
x15y110=e6
x16y110=e0
x17y110=e0
x18y110=e6
x19y110=e0
x20y110=e6
x21y110=e0
x22y110=e0
x23y110=e6
x24y110=e0
x25y110=e6
x26y110=e0
x27y110=e6
x28y110=e0
x29y110=e0
x30y110=e0
x31y110=e6
x32y110=e0
x33y110=e6
x34y110=e6
x35y110=e0
x36y110=e0
x37y110=e6
x38y110=e0
x39y110=e0
x40y110=e6
x41y110=e0
x42y110=e0
x43y110=e6
x44y110=e0
x45y110=e0
x46y110=e0
x47y110=e6
x48y110=e0
x49y110=e0
x50y110=e6
x51y110=e0
x52y110=e6
x53y110=e0
x54y110=e0
x55y110=e6
x56y110=e0
x57y110=e0
x58y110=e0
x59y110=e6
x60y110=e0
x61y110=e0
x62y110=e6
x63y110=e0
x64y110=e6
x65y110=e0
x66y110=e6
x67y110=e0
x68y110=e0
x69y110=e6
x70y110=e0
x71y110=e0
x72y110=e0
x73y110=e0
x74y110=e6
x75y110=e0
x76y110=e0
x77y110=e6
x78y110=e0
x79y110=e0
x80y110=e6
x81y110=e0
x82y110=e0
x83y110=e0
x84y110=e6
x85y110=e0
x86y110=e0
x87y110=e6
x88y110=e0
x89y110=e6
x90y110=e0
x91y110=e0
x92y110=e6
x93y110=e0
x94y110=e0
x95y110=e6
x96y110=e0
x97y110=e6
x98y110=e0
x99y110=e6
x100y110=e0
x101y110=e0
x102y110=e6
x103y110=e0
x104y110=e0
x105y110=e0
x106y110=e6
x107y110=e0
x108y110=e6
x109y110=e0
x110y110=e0
x111y110=e0
x112y110=e6
x1y111=e6
x2y111=e0
x3y111=e6
x4y111=e0
x5y111=e0
x6y111=e6
x7y111=e0
x8y111=e0
x9y111=e0
x10y111=e0
x11y111=e6
x12y111=e0
x13y111=e6
x14y111=e0
x15y111=e0
x16y111=e6
x17y111=e0
x18y111=e0
x19y111=e0
x20y111=e0
x21y111=e6
x22y111=e0
x23y111=e0
x24y111=e6
x25y111=e0
x26y111=e0
x27y111=e0
x28y111=e6
x29y111=e0
x30y111=e6
x31y111=e0
x32y111=e6
x33y111=e0
x34y111=e0
x35y111=e6
x36y111=e0
x37y111=e0
x38y111=e6
x39y111=e0
x40y111=e0
x41y111=e6
x42y111=e0
x43y111=e0
x44y111=e6
x45y111=e0
x46y111=e6
x47y111=e0
x48y111=e6
x49y111=e0
x50y111=e0
x51y111=e0
x52y111=e0
x53y111=e6
x54y111=e0
x55y111=e0
x56y111=e6
x57y111=e0
x58y111=e6
x59y111=e0
x60y111=e0
x61y111=e6
x62y111=e0
x63y111=e6
x64y111=e0
x65y111=e0
x66y111=e0
x67y111=e6
x68y111=e0
x69y111=e6
x70y111=e0
x71y111=e6
x72y111=e0
x73y111=e6
x74y111=e0
x75y111=e6
x76y111=e0
x77y111=e0
x78y111=e6
x79y111=e0
x80y111=e0
x81y111=e6
x82y111=e0
x83y111=e6
x84y111=e0
x85y111=e6
x86y111=e0
x87y111=e0
x88y111=e0
x89y111=e0
x90y111=e6
x91y111=e0
x92y111=e0
x93y111=e6
x94y111=e0
x95y111=e6
x96y111=e0
x97y111=e0
x98y111=e6
x99y111=e0
x100y111=e0
x101y111=e6
x102y111=e0
x103y111=e0
x104y111=e6
x105y111=e0
x106y111=e6
x107y111=e0
x108y111=e0
x109y111=e6
x110y111=e0
x111y111=e6
x112y111=e0
x1y112=e0
x2y112=e0
x3y112=e0
x4y112=e6
x5y112=e0
x6y112=e0
x7y112=e6
x8y112=e0
x9y112=e6
x10y112=e0
x11y112=e6
x12y112=e0
x13y112=e0
x14y112=e6
x15y112=e0
x16y112=e0
x17y112=e6
x18y112=e0
x19y112=e6
x20y112=e0
x21y112=e0
x22y112=e6
x23y112=e0
x24y112=e0
x25y112=e6
x26y112=e0
x27y112=e6
x28y112=e0
x29y112=e6
x30y112=e0
x31y112=e0
x32y112=e0
x33y112=e6
x34y112=e0
x35y112=e0
x36y112=e6
x37y112=e0
x38y112=e0
x39y112=e6
x40y112=e0
x41y112=e6
x42y112=e0
x43y112=e6
x44y112=e0
x45y112=e6
x46y112=e0
x47y112=e0
x48y112=e0
x49y112=e6
x50y112=e0
x51y112=e6
x52y112=e0
x53y112=e6
x54y112=e0
x55y112=e6
x56y112=e0
x57y112=e6
x58y112=e0
x59y112=e0
x60y112=e6
x61y112=e0
x62y112=e0
x63y112=e0
x64y112=e6
x65y112=e0
x66y112=e6
x67y112=e0
x68y112=e0
x69y112=e0
x70y112=e6
x71y112=e0
x72y112=e6
x73y112=e0
x74y112=e0
x75y112=e6
x76y112=e0
x77y112=e6
x78y112=e0
x79y112=e6
x80y112=e0
x81y112=e0
x82y112=e6
x83y112=e0
x84y112=e0
x85y112=e0
x86y112=e6
x87y112=e0
x88y112=e6
x89y112=e0
x90y112=e0
x91y112=e6
x92y112=e0
x93y112=e6
x94y112=e0
x95y112=e0
x96y112=e6
x97y112=e0
x98y112=e0
x99y112=e6
x100y112=e0
x101y112=e0
x102y112=e6
x103y112=e0
x104y112=e0
x105y112=e6
x106y112=e0
x107y112=e6
x108y112=e0
x109y112=e0
x110y112=e6
x111y112=e0
x112y112=e0
