[General]
width=176
height=144

[Picture]
x1y1=ff7998
x2y1=ff7896
x3y1=fd7b97
x4y1=fa7e98
x5y1=ff869f
x6y1=ff89a2
x7y1=ff859d
x8y1=fe7c96
x9y1=fd7991
x10y1=fc768f
x11y1=f7738b
x12y1=f8748c
x13y1=f9758d
x14y1=f46e87
x15y1=fb728e
x16y1=fc718e
x17y1=ff7694
x18y1=fd7694
x19y1=fe7996
x20y1=ff7e9a
x21y1=ff819e
x22y1=ff84a0
x23y1=ff87a3
x24y1=fb7c99
x25y1=fd7694
x26y1=fd7694
x27y1=fe7893
x28y1=f6708b
x29y1=f76c8d
x30y1=fd7293
x31y1=f97491
x32y1=fc7a96
x33y1=ff7d9b
x34y1=ff7f9b
x35y1=ff849e
x36y1=ff829d
x37y1=fd7492
x38y1=f96e8d
x39y1=fb7695
x40y1=fe829e
x41y1=ff8da6
x42y1=ff8fa8
x43y1=fe839f
x44y1=ff819e
x45y1=ff819c
x46y1=fe7c98
x47y1=ed6482
x48y1=da4d6d
x49y1=e55a79
x50y1=fa6f8e
x51y1=fe7593
x52y1=fd7694
x53y1=fd7792
x54y1=f8738e
x55y1=dd5772
x56y1=b32e49
x57y1=c33e5d
x58y1=cd4867
x59y1=ee6384
x60y1=f66b8c
x61y1=fb7693
x62y1=fe7c98
x63y1=ff7b9a
x64y1=ff7997
x65y1=ff7594
x66y1=fd718e
x67y1=ee627d
x68y1=ff7c99
x69y1=ff7e9c
x70y1=dd5676
x71y1=e85d7c
x72y1=ee6382
x73y1=fe7495
x74y1=ff7795
x75y1=ff7796
x76y1=f86985
x77y1=ec617e
x78y1=ff809c
x79y1=ff7594
x80y1=f46b89
x81y1=fa7592
x82y1=ff829e
x83y1=ff7e9b
x84y1=ff7a97
x85y1=fd7897
x86y1=fe7b9a
x87y1=ff7e9d
x88y1=ff82a0
x89y1=ff85a1
x90y1=fd85a0
x91y1=fe829c
x92y1=ff809b
x93y1=fe7d99
x94y1=ff7e9a
x95y1=ff7c97
x96y1=e7627d
x97y1=ff8198
x98y1=e26d80
x99y1=952c3d
x100y1=881b2e
x101y1=ea6582
x102y1=f16182
x103y1=eb5b7c
x104y1=f76e8c
x105y1=e26380
x106y1=8f1933
x107y1=74081f
x108y1=cc6077
x109y1=fb859d
x110y1=ff88a1
x111y1=ff87a1
x112y1=ff859f
x113y1=ff869f
x114y1=ff89a2
x115y1=fe86a1
x116y1=ff85a1
x117y1=ff839f
x118y1=ff829d
x119y1=ff839e
x120y1=ff859d
x121y1=ff839b
x122y1=ff849c
x123y1=ff8ea8
x124y1=ff89a3
x125y1=fd85a1
x126y1=fd829f
x127y1=ff88a4
x128y1=ff86a0
x129y1=f97894
x130y1=ff809b
x131y1=ff7995
x132y1=fd7792
x133y1=ff809a
x134y1=ff839c
x135y1=ff7c97
x136y1=f16b86
x137y1=ec627c
x138y1=ff7d97
x139y1=ff829a
x140y1=ff8399
x141y1=ff839b
x142y1=ff859d
x143y1=ff7f9b
x144y1=ff809c
x145y1=ff819f
x146y1=ff84a1
x147y1=ff809d
x148y1=ff809b
x149y1=ff849d
x150y1=ff7f99
x151y1=fa7590
x152y1=ed6782
x153y1=d45068
x154y1=d55169
x155y1=e56178
x156y1=e26177
x157y1=d4566b
x158y1=cf5669
x159y1=ce5469
x160y1=cb5669
x161y1=cc586d
x162y1=d76879
x163y1=ba505e
x164y1=af3f4d
x165y1=da5a71
x166y1=e35a74
x167y1=f0647f
x168y1=fd7790
x169y1=ff849c
x170y1=ff8aa0
x171y1=ff879e
x172y1=fb8095
x173y1=f6768d
x174y1=dc5d72
x175y1=dd5d74
x176y1=d85a70
x1y2=ff7f9d
x2y2=fd7b97
x3y2=fd7e99
x4y2=ff869f
x5y2=ff8fa8
x6y2=ff8aa3
x7y2=ff8199
x8y2=fd7b95
x9y2=fb758e
x10y2=f9738c
x11y2=fc768f
x12y2=f9738c
x13y2=f8728b
x14y2=f7718a
x15y2=f86f8b
x16y2=fa718d
x17y2=fe7593
x18y2=f97290
x19y2=fb7693
x20y2=ff7d99
x21y2=fe7f9a
x22y2=fe829c
x23y2=ff83a0
x24y2=ff86a1
x25y2=ff7d9c
x26y2=fc7794
x27y2=fa7592
x28y2=fc7593
x29y2=f76c8b
x30y2=f66b8a
x31y2=f97290
x32y2=f7728f
x33y2=fd7694
x34y2=ff7a97
x35y2=ff809b
x36y2=ff839f
x37y2=ff7795
x38y2=ff7493
x39y2=ff7c9b
x40y2=ff829f
x41y2=ff8ca6
x42y2=ff8aa4
x43y2=ff85a1
x44y2=ff84a1
x45y2=ff86a0
x46y2=ff809c
x47y2=fa718f
x48y2=db506f
x49y2=da4f6e
x50y2=f96e8d
x51y2=ff7997
x52y2=fd7694
x53y2=fc7794
x54y2=fa7590
x55y2=cb4560
x56y2=c43e59
x57y2=da5574
x58y2=da5373
x59y2=f36889
x60y2=f56a8b
x61y2=ff7f9c
x62y2=ff84a0
x63y2=ff7f9e
x64y2=ff7f9c
x65y2=ff7a98
x66y2=ff7592
x67y2=f26681
x68y2=ff7491
x69y2=ff7e9c
x70y2=ea6381
x71y2=ea617f
x72y2=f96e8d
x73y2=ff7c9d
x74y2=ff7897
x75y2=fd6c8b
x76y2=eb5a77
x77y2=f76c89
x78y2=ff809b
x79y2=ff7694
x80y2=fe7795
x81y2=ff7e9a
x82y2=ff819d
x83y2=ff7b98
x84y2=ff7a97
x85y2=ff7e9d
x86y2=ff809e
x87y2=ff82a0
x88y2=ff84a1
x89y2=ff839f
x90y2=ff84a0
x91y2=ff839d
x92y2=ff809b
x93y2=ff7e9a
x94y2=ff829e
x95y2=ee6c86
x96y2=f07089
x97y2=ec6e86
x98y2=aa3347
x99y2=9a2b3e
x100y2=d66277
x101y2=f46d8b
x102y2=e55576
x103y2=fd7090
x104y2=ff7a98
x105y2=f77895
x106y2=e26c86
x107y2=e77a91
x108y2=f98ca3
x109y2=ff8ba3
x110y2=ff859e
x111y2=ff859e
x112y2=ff87a0
x113y2=ff869f
x114y2=ff859e
x115y2=ff86a2
x116y2=ff84a0
x117y2=ff85a1
x118y2=ff84a1
x119y2=ff85a0
x120y2=ff839b
x121y2=ff849c
x122y2=ff869f
x123y2=ff8ba3
x124y2=ff8aa4
x125y2=ff87a4
x126y2=ff87a3
x127y2=ff84a0
x128y2=ff849e
x129y2=f87891
x130y2=ff809b
x131y2=fe7591
x132y2=fc738f
x133y2=fe7c96
x134y2=ff809a
x135y2=ff809b
x136y2=ff7b96
x137y2=ec627c
x138y2=ff7b95
x139y2=ff829a
x140y2=fd7d94
x141y2=fc7c95
x142y2=ff8099
x143y2=ff7f9b
x144y2=ff7f9b
x145y2=ff82a0
x146y2=ff83a1
x147y2=ff85a0
x148y2=fe7e97
x149y2=fc7a94
x150y2=ff7c94
x151y2=ff7b94
x152y2=ff819a
x153y2=fd7991
x154y2=e46078
x155y2=cd4961
x156y2=ce4d63
x157y2=ca4a61
x158y2=cc5166
x159y2=c34c60
x160y2=c34f62
x161y2=c5586b
x162y2=ce6373
x163y2=a03745
x164y2=c1515f
x165y2=d35469
x166y2=e15872
x167y2=ec627c
x168y2=f66d87
x169y2=fb7993
x170y2=ff859d
x171y2=ff88a0
x172y2=fc8196
x173y2=f7798e
x174y2=dc5e73
x175y2=da5f74
x176y2=d75d72
x1y3=ff86a0
x2y3=fc829b
x3y3=fb859d
x4y3=ff8fa6
x5y3=ff8fa6
x6y3=ff88a1
x7y3=f97b93
x8y3=f6748e
x9y3=f7718a
x10y3=f66d87
x11y3=f9708a
x12y3=fa718b
x13y3=fb728e
x14y3=f9708c
x15y3=fa718d
x16y3=fa718d
x17y3=fa718f
x18y3=fb7492
x19y3=ff7596
x20y3=ff7896
x21y3=ff7d99
x22y3=ff859d
x23y3=ff809c
x24y3=fd7e99
x25y3=ff85a2
x26y3=ff809e
x27y3=fb7695
x28y3=ff7694
x29y3=fb6e8e
x30y3=f16484
x31y3=f76c8b
x32y3=f9708e
x33y3=fc7190
x34y3=fc7391
x35y3=fb7691
x36y3=ff7b96
x37y3=ff7a98
x38y3=ff7b99
x39y3=ff7a98
x40y3=ff7d99
x41y3=ff87a4
x42y3=ff86a2
x43y3=ff85a1
x44y3=ff86a2
x45y3=ff86a2
x46y3=ff83a0
x47y3=ff7b99
x48y3=e05574
x49y3=d84d6c
x50y3=f66b8a
x51y3=ff7697
x52y3=ff7f9d
x53y3=ff7f9c
x54y3=f2708c
x55y3=bd3853
x56y3=d04a65
x57y3=e15778
x58y3=df5475
x59y3=f26587
x60y3=f06687
x61y3=ff829e
x62y3=ff829d
x63y3=ff829f
x64y3=ff839e
x65y3=ff829e
x66y3=fe7994
x67y3=f66783
x68y3=f66584
x69y3=ff84a2
x70y3=f06b88
x71y3=e8617f
x72y3=ff7b97
x73y3=ff7c9a
x74y3=fc718e
x75y3=f25f7c
x76y3=e65370
x77y3=fe7390
x78y3=ff7f9a
x79y3=ff819d
x80y3=ff7f9b
x81y3=ff7e9a
x82y3=ff7f9b
x83y3=ff7d99
x84y3=ff7e9a
x85y3=ff829d
x86y3=ff809b
x87y3=ff829d
x88y3=ff849f
x89y3=ff839e
x90y3=ff819c
x91y3=ff819c
x92y3=fe7d99
x93y3=ff809c
x94y3=ff839f
x95y3=d65a74
x96y3=bb4158
x97y3=be445b
x98y3=ce546b
x99y3=eb6d85
x100y3=fe7c96
x101y3=e45978
x102y3=f76788
x103y3=ff7a9a
x104y3=fc7593
x105y3=fe7d9b
x106y3=fc849f
x107y3=ff8aa4
x108y3=fd88a2
x109y3=ff87a0
x110y3=ff88a1
x111y3=ff87a0
x112y3=ff89a2
x113y3=fe86a1
x114y3=ff86a2
x115y3=ff84a0
x116y3=ff85a1
x117y3=ff85a2
x118y3=ff829f
x119y3=fe829c
x120y3=ff87a0
x121y3=ff88a1
x122y3=ff88a1
x123y3=ff87a0
x124y3=ff87a0
x125y3=ff84a0
x126y3=ff83a0
x127y3=ff84a0
x128y3=ff849e
x129y3=f7758f
x130y3=ff829d
x131y3=ff7692
x132y3=fc738f
x133y3=ff7994
x134y3=ff7f9a
x135y3=ff819c
x136y3=ff7d98
x137y3=f26882
x138y3=ff758f
x139y3=ff839b
x140y3=ff7e96
x141y3=fc768f
x142y3=fe7891
x143y3=ff7e99
x144y3=ff7e98
x145y3=fe7c96
x146y3=ff7e98
x147y3=ff839c
x148y3=fd7b93
x149y3=fb728c
x150y3=fa7089
x151y3=f36781
x152y3=f56b84
x153y3=f8748b
x154y3=ff7f97
x155y3=f36d86
x156y3=eb677f
x157y3=c7455f
x158y3=c3485d
x159y3=ad394c
x160y3=ac4250
x161y3=b95764
x162y3=a64651
x163y3=9d3742
x164y3=bf4f5d
x165y3=ce5163
x166y3=e45e76
x167y3=e76179
x168y3=ee667e
x169y3=f26882
x170y3=ee657f
x171y3=f06e86
x172y3=ff8298
x173y3=f1768a
x174y3=c64f62
x175y3=c75366
x176y3=cc5d6e
x1y4=ff8ba3
x2y4=fd879f
x3y4=ff8ea5
x4y4=ff8da5
x5y4=ff89a2
x6y4=fd819b
x7y4=fd7d96
x8y4=fb7691
x9y4=f67089
x10y4=fa718b
x11y4=fc738d
x12y4=fb728c
x13y4=fc738f
x14y4=fc738f
x15y4=fe7591
x16y4=f86f8b
x17y4=fb7492
x18y4=ff7896
x19y4=fe7593
x20y4=fc7593
x21y4=fc7a94
x22y4=ff8099
x23y4=ff839c
x24y4=ff819d
x25y4=f87996
x26y4=ff84a3
x27y4=ff81a0
x28y4=fc7595
x29y4=fc7190
x30y4=f16582
x31y4=f36686
x32y4=f76c8b
x33y4=f96c8c
x34y4=fa6f8e
x35y4=ff7995
x36y4=ff7995
x37y4=ff7795
x38y4=ff7a98
x39y4=ff7896
x40y4=ff7a97
x41y4=ff84a2
x42y4=ff84a1
x43y4=ff809e
x44y4=ff809d
x45y4=ff84a0
x46y4=ff87a3
x47y4=ff819d
x48y4=e7607e
x49y4=d24967
x50y4=eb6280
x51y4=fc7595
x52y4=ff7c9b
x53y4=ff7f9c
x54y4=ee6c88
x55y4=bc3754
x56y4=e96280
x57y4=f76c8d
x58y4=e95c7e
x59y4=e75a7c
x60y4=f9708e
x61y4=ff809c
x62y4=ff809b
x63y4=ff839f
x64y4=ff839d
x65y4=ff869e
x66y4=ff839d
x67y4=ff728e
x68y4=ed5c79
x69y4=ff829d
x70y4=f87692
x71y4=f16b86
x72y4=ff7894
x73y4=ff7795
x74y4=f96d8a
x75y4=f15e7b
x76y4=e85571
x77y4=ff7791
x78y4=ff819b
x79y4=fe7d99
x80y4=fe7d99
x81y4=ff7e9a
x82y4=ff7e9a
x83y4=ff809c
x84y4=ff809c
x85y4=ff849f
x86y4=ff839d
x87y4=ff849e
x88y4=ff839d
x89y4=ff809c
x90y4=ff819d
x91y4=ff819d
x92y4=ff819d
x93y4=ff829e
x94y4=fb7a96
x95y4=ae324c
x96y4=971b35
x97y4=8a0e26
x98y4=c74961
x99y4=ff7994
x100y4=ef6481
x101y4=e05373
x102y4=ff7493
x103y4=ff7997
x104y4=ff7f9c
x105y4=ff85a2
x106y4=ff88a4
x107y4=ff88a3
x108y4=ff87a2
x109y4=ff8aa3
x110y4=ff869f
x111y4=ff87a0
x112y4=ff859e
x113y4=ff85a1
x114y4=fe839f
x115y4=fe829e
x116y4=ff84a0
x117y4=ff809d
x118y4=ff839f
x119y4=ff849e
x120y4=ff869f
x121y4=ff88a1
x122y4=ff87a0
x123y4=ff869f
x124y4=ff86a0
x125y4=ff7e9a
x126y4=fc7b97
x127y4=ff839e
x128y4=ff8099
x129y4=fc7792
x130y4=ff7f9b
x131y4=fd728f
x132y4=fd728f
x133y4=ff7a95
x134y4=ff809b
x135y4=ff839d
x136y4=ff7d98
x137y4=f66a85
x138y4=fc708b
x139y4=ff839b
x140y4=ff8098
x141y4=ff758f
x142y4=fd738d
x143y4=ff7a95
x144y4=ff7b94
x145y4=ff7992
x146y4=fd7990
x147y4=ff7d95
x148y4=ff8096
x149y4=ff7c94
x150y4=ff748e
x151y4=f5677f
x152y4=ea6077
x153y4=ec667e
x154y4=ea667d
x155y4=f16b84
x156y4=f5708b
x157y4=fa7892
x158y4=e96e83
x159y4=c15161
x160y4=932d3a
x161y4=8a333c
x162y4=762128
x163y4=9a3942
x164y4=b2444f
x165y4=d05665
x166y4=e56176
x167y4=e05b70
x168y4=dd556d
x169y4=db4f6a
x170y4=e75b76
x171y4=fd7790
x172y4=f8798e
x173y4=e87383
x174y4=9e3241
x175y4=8f2d3a
x176y4=9d404b
x1y5=ff92a9
x2y5=ff8ca4
x3y5=ff8ba4
x4y5=ff86a1
x5y5=fd7d96
x6y5=f97791
x7y5=f9748f
x8y5=fc7691
x9y5=f8728b
x10y5=f56f88
x11y5=f7718a
x12y5=fa748d
x13y5=fe7893
x14y5=ff7b96
x15y5=ff7896
x16y5=fd7694
x17y5=fc7593
x18y5=fe7795
x19y5=fe7795
x20y5=ff7a95
x21y5=fd7b95
x22y5=fe7e97
x23y5=ff809c
x24y5=ff829e
x25y5=fe7998
x26y5=f77291
x27y5=ff83a1
x28y5=fc7998
x29y5=fc7593
x30y5=f56a89
x31y5=eb5f7c
x32y5=f56986
x33y5=fc718e
x34y5=fe7390
x35y5=ff7491
x36y5=fc718e
x37y5=ff7794
x38y5=ff7894
x39y5=fd7893
x40y5=ff829c
x41y5=ff839f
x42y5=ff7d99
x43y5=ff7596
x44y5=fc7595
x45y5=ff809d
x46y5=ff89a5
x47y5=ff85a0
x48y5=f2708c
x49y5=d74e6c
x50y5=e65d7b
x51y5=fd7696
x52y5=ff7c9b
x53y5=ff7b9a
x54y5=d04b68
x55y5=d24b69
x56y5=f56c8a
x57y5=fa6f90
x58y5=f86b8d
x59y5=ed6281
x60y5=fd7492
x61y5=ff829e
x62y5=ff8199
x63y5=fe829c
x64y5=ff86a0
x65y5=ff859d
x66y5=ff8098
x67y5=ff7590
x68y5=ee5f7b
x69y5=ff7a95
x70y5=fd7b95
x71y5=f36a86
x72y5=fa6e8b
x73y5=fd6e8c
x74y5=f66584
x75y5=ef5a78
x76y5=ed5d78
x77y5=ff7992
x78y5=ff8099
x79y5=ff809c
x80y5=ff7f9b
x81y5=ff809c
x82y5=ff809c
x83y5=ff809c
x84y5=ff819d
x85y5=ff829e
x86y5=ff839e
x87y5=ff849e
x88y5=ff839d
x89y5=ff809c
x90y5=ff809c
x91y5=ff829d
x92y5=ff809c
x93y5=ff819e
x94y5=eb6683
x95y5=e76581
x96y5=f3718d
x97y5=de5c76
x98y5=f6718c
x99y5=fc738f
x100y5=dc516e
x101y5=e65d7b
x102y5=ff7997
x103y5=fe7c98
x104y5=ff849f
x105y5=ff859f
x106y5=ff86a0
x107y5=ff87a1
x108y5=ff849e
x109y5=ff849e
x110y5=ff86a0
x111y5=ff859f
x112y5=ff839e
x113y5=ff829f
x114y5=ff829f
x115y5=ff839d
x116y5=ff839d
x117y5=ff86a0
x118y5=ff859f
x119y5=fd819d
x120y5=fe839f
x121y5=ff87a0
x122y5=ff869f
x123y5=ff849c
x124y5=ff859e
x125y5=ff7e98
x126y5=fb7691
x127y5=ff7a95
x128y5=ff7e99
x129y5=fb7590
x130y5=ff7c96
x131y5=fd718e
x132y5=fb708d
x133y5=ff7d98
x134y5=ff839c
x135y5=ff829b
x136y5=fd7893
x137y5=f26681
x138y5=fd718c
x139y5=ff8199
x140y5=ff7a92
x141y5=ff758e
x142y5=fd738c
x143y5=fc738d
x144y5=ff7791
x145y5=ff768f
x146y5=fd758b
x147y5=fc768e
x148y5=fd798e
x149y5=ff7c91
x150y5=ff7c92
x151y5=fd7289
x152y5=eb6178
x153y5=e55f77
x154y5=ea667d
x155y5=e8647c
x156y5=ec6a82
x157y5=e8667e
x158y5=e76c81
x159y5=dd6d7b
x160y5=cc6b74
x161y5=792e32
x162y5=661e21
x163y5=92363b
x164y5=b34850
x165y5=ce5864
x166y5=d05162
x167y5=cf4a5f
x168y5=d54b62
x169y5=eb617a
x170y5=ff7992
x171y5=ff7c94
x172y5=f27388
x173y5=de707d
x174y5=842731
x175y5=671c23
x176y5=68262a
x1y6=ff8fa6
x2y6=fe869f
x3y6=ff839e
x4y6=fc7a96
x5y6=ff7994
x6y6=f8728d
x7y6=f6708b
x8y6=f9738e
x9y6=f8728b
x10y6=f7718a
x11y6=f56f88
x12y6=f67089
x13y6=fa748f
x14y6=fd7893
x15y6=ff7997
x16y6=ff7896
x17y6=ff7a98
x18y6=fe7795
x19y6=ff7a95
x20y6=ff7b96
x21y6=ff7d97
x22y6=ff809c
x23y6=ff7f9b
x24y6=ff7f9b
x25y6=ff7b99
x26y6=f46d8b
x27y6=f57291
x28y6=ff84a0
x29y6=fe7996
x30y6=fa7391
x31y6=e85c79
x32y6=ef6380
x33y6=f36885
x34y6=fc738f
x35y6=ff7592
x36y6=ff7794
x37y6=ff7592
x38y6=fb728e
x39y6=ff7d97
x40y6=ff879f
x41y6=ff829e
x42y6=f87390
x43y6=fa6f90
x44y6=f96e8f
x45y6=ff7c9b
x46y6=ff87a4
x47y6=ff8aa4
x48y6=fa7b96
x49y6=de5775
x50y6=e15876
x51y6=ff7999
x52y6=ff7c9b
x53y6=ef6a89
x54y6=ba3353
x55y6=e15a78
x56y6=f46b89
x57y6=ef6586
x58y6=f26788
x59y6=f26987
x60y6=ff7d9b
x61y6=ff7e98
x62y6=ff829a
x63y6=fd819b
x64y6=fe829a
x65y6=ff8099
x66y6=ff7e96
x67y6=ff7993
x68y6=f06680
x69y6=fc7792
x70y6=ff809b
x71y6=f26784
x72y6=f66785
x73y6=f56181
x74y6=f3607d
x75y6=f15e7a
x76y6=f2647e
x77y6=ff7c95
x78y6=ff829b
x79y6=fc7b97
x80y6=ff7e9a
x81y6=ff819c
x82y6=ff819c
x83y6=ff809c
x84y6=ff819d
x85y6=ff7f9b
x86y6=ff809b
x87y6=ff819c
x88y6=ff839d
x89y6=ff809c
x90y6=ff819d
x91y6=ff829d
x92y6=ff7f9b
x93y6=ff7c99
x94y6=e05977
x95y6=fa7391
x96y6=ff7b98
x97y6=fe7893
x98y6=fd7490
x99y6=d84d6a
x100y6=e05572
x101y6=f56e8c
x102y6=fe7996
x103y6=ff7f9b
x104y6=ff849f
x105y6=ff859f
x106y6=ff86a0
x107y6=ff849f
x108y6=ff839e
x109y6=ff809b
x110y6=ff829d
x111y6=ff809b
x112y6=fe829c
x113y6=fb859f
x114y6=fa859f
x115y6=fb839c
x116y6=ff869f
x117y6=ff849e
x118y6=ff849e
x119y6=ff84a0
x120y6=ff85a1
x121y6=ff87a0
x122y6=ff87a0
x123y6=ff839b
x124y6=ff839d
x125y6=ff7d98
x126y6=fa718d
x127y6=f66d89
x128y6=ff7b97
x129y6=ff7690
x130y6=ff7e98
x131y6=ff7491
x132y6=fa6f8c
x133y6=ff7e98
x134y6=ff849c
x135y6=ff819a
x136y6=fe7893
x137y6=f26681
x138y6=fc708b
x139y6=ff7f97
x140y6=fd778f
x141y6=fe748d
x142y6=fe748d
x143y6=fc728c
x144y6=fe748d
x145y6=f96f88
x146y6=f66c83
x147y6=f46c82
x148y6=ed687d
x149y6=ed697e
x150y6=f67088
x151y6=f76f87
x152y6=eb637b
x153y6=e15b73
x154y6=e35f77
x155y6=df5d75
x156y6=de5e75
x157y6=dd5d74
x158y6=d55e71
x159y6=ce6470
x160y6=a74e54
x161y6=5b191a
x162y6=632122
x163y6=8b3236
x164y6=b44951
x165y6=bc4652
x166y6=bc3d4e
x167y6=d95167
x168y6=f76d86
x169y6=ff7890
x170y6=ff7d95
x171y6=ff7b93
x172y6=f07287
x173y6=d36d7a
x174y6=6d1e24
x175y6=54191d
x176y6=4c1e20
x1y7=ff8ca5
x2y7=ff839d
x3y7=ff7e9a
x4y7=ff7a97
x5y7=fe7893
x6y7=fd7792
x7y7=f7718a
x8y7=f6728a
x9y7=f57189
x10y7=f7738b
x11y7=f56f88
x12y7=f9708a
x13y7=fa718d
x14y7=f7718c
x15y7=fc7794
x16y7=ff7d9a
x17y7=ff7b96
x18y7=fe7893
x19y7=ff7b96
x20y7=ff7f99
x21y7=ff7f9b
x22y7=ff819f
x23y7=ff7e9c
x24y7=ff819d
x25y7=ff7f9b
x26y7=f8738e
x27y7=e65d7b
x28y7=f7708e
x29y7=ff85a1
x30y7=fc7a96
x31y7=f46986
x32y7=e45875
x33y7=ee6380
x34y7=ff7a96
x35y7=ff7b96
x36y7=ff7a95
x37y7=ff7793
x38y7=fd7792
x39y7=ff859d
x40y7=ff879f
x41y7=ff7d9a
x42y7=f7708e
x43y7=f9708e
x44y7=fa718f
x45y7=ff7997
x46y7=ff7f9b
x47y7=ff8ba5
x48y7=ff819c
x49y7=e96280
x50y7=dd5472
x51y7=ff7a9a
x52y7=fa7594
x53y7=cb4464
x54y7=ca4061
x55y7=ed6482
x56y7=ef6886
x57y7=ee6787
x58y7=f77291
x59y7=ff7997
x60y7=ff7b99
x61y7=ff7c97
x62y7=fe7c94
x63y7=ff7f98
x64y7=fd7d96
x65y7=fe7e97
x66y7=ff7e99
x67y7=ff7b95
x68y7=f46b85
x69y7=f8728d
x70y7=ff819c
x71y7=ef6380
x72y7=f46382
x73y7=f25d7b
x74y7=f45f7d
x75y7=f1617c
x76y7=f56983
x77y7=fd7790
x78y7=ff809a
x79y7=ff84a0
x80y7=ff829f
x81y7=ff819d
x82y7=ff809c
x83y7=ff7f9b
x84y7=ff809c
x85y7=ff809c
x86y7=ff819c
x87y7=ff819c
x88y7=fe829c
x89y7=ff809c
x90y7=ff7f9b
x91y7=ff809c
x92y7=ff7f9b
x93y7=f7708e
x94y7=e96280
x95y7=fb7492
x96y7=fe7795
x97y7=ff7997
x98y7=dc5371
x99y7=d54868
x100y7=ee6382
x101y7=ff7896
x102y7=ff7e9b
x103y7=ff7d99
x104y7=ff819d
x105y7=ff85a0
x106y7=ff86a0
x107y7=ff849e
x108y7=fe7f9a
x109y7=ff819c
x110y7=ff7e9a
x111y7=ff829e
x112y7=fa869d
x113y7=ec8ea0
x114y7=da7d8f
x115y7=f78a9f
x116y7=fd859e
x117y7=fd839c
x118y7=ff849e
x119y7=ff809d
x120y7=ff83a0
x121y7=ff84a0
x122y7=ff859f
x123y7=ff839b
x124y7=ff829a
x125y7=ff758f
x126y7=f46883
x127y7=f56b85
x128y7=ff7791
x129y7=fe758f
x130y7=fd748e
x131y7=fd738d
x132y7=ff7690
x133y7=ff829b
x134y7=ff829a
x135y7=ff7b93
x136y7=fd748e
x137y7=f56984
x138y7=fa6e89
x139y7=ff7d95
x140y7=fd758d
x141y7=fb718a
x142y7=fc728b
x143y7=fd738c
x144y7=fb718a
x145y7=f56b84
x146y7=f06880
x147y7=ee6880
x148y7=ec687f
x149y7=e8627a
x150y7=e66079
x151y7=e66079
x152y7=e56179
x153y7=e05e76
x154y7=da5a71
x155y7=da5a71
x156y7=d85a70
x157y7=d45b6e
x158y7=cc5d6d
x159y7=af545d
x160y7=6c2024
x161y7=551718
x162y7=622021
x163y7=8c3339
x164y7=a33842
x165y7=b23847
x166y7=df5b70
x167y7=f87088
x168y7=fc738d
x169y7=ff7d95
x170y7=ff829a
x171y7=fe7890
x172y7=e76e81
x173y7=be626d
x174y7=571519
x175y7=46191c
x176y7=3b1b1c
x1y8=ff87a2
x2y8=f97a95
x3y8=fb7995
x4y8=ff7b98
x5y8=ff7994
x6y8=ff7994
x7y8=fc7890
x8y8=fa768e
x9y8=f7758d
x10y8=f6728a
x11y8=f9738c
x12y8=f9708a
x13y8=fa718d
x14y8=f8728d
x15y8=f46f8c
x16y8=fb7693
x17y8=fe7893
x18y8=ff7b96
x19y8=fd7b95
x20y8=fe7d99
x21y8=fc7b99
x22y8=ff7e9c
x23y8=ff7e9c
x24y8=ff809c
x25y8=ff809c
x26y8=ff7d97
x27y8=eb607d
x28y8=d84f6b
x29y8=f16f89
x30y8=ff86a0
x31y8=ff7692
x32y8=ef6481
x33y8=f46986
x34y8=ff7b97
x35y8=ff7c97
x36y8=ff819c
x37y8=ff7d99
x38y8=ff7f9a
x39y8=ff879f
x40y8=ff849c
x41y8=fa7894
x42y8=f8718f
x43y8=fa718f
x44y8=fd7492
x45y8=fe7593
x46y8=fa7592
x47y8=ff86a1
x48y8=ff849e
x49y8=f36c8a
x50y8=d9506e
x51y8=fd7696
x52y8=ec6585
x53y8=c3395a
x54y8=e85e7f
x55y8=f46b89
x56y8=f66f8d
x57y8=f57291
x58y8=ff7f9b
x59y8=ff809d
x60y8=ff7a95
x61y8=ff7c95
x62y8=ff7a93
x63y8=ff7c97
x64y8=ff7d97
x65y8=ff7d97
x66y8=ff7f99
x67y8=ff7b94
x68y8=fe758f
x69y8=ee6883
x70y8=ff7f9b
x71y8=ef6380
x72y8=f26180
x73y8=f25e7e
x74y8=fc6986
x75y8=f86985
x76y8=fc728c
x77y8=ff7793
x78y8=ff7f9a
x79y8=ff819f
x80y8=ff83a0
x81y8=ff829d
x82y8=ff819d
x83y8=ff7f9b
x84y8=ff7e9a
x85y8=ff7f9b
x86y8=ff829d
x87y8=ff829d
x88y8=ff819c
x89y8=ff7f9b
x90y8=ff7f9b
x91y8=ff7e9a
x92y8=ff809c
x93y8=eb6482
x94y8=f56e8c
x95y8=f97290
x96y8=ff7997
x97y8=e45b79
x98y8=d14665
x99y8=ee6181
x100y8=ff7594
x101y8=ff809d
x102y8=ff7f9b
x103y8=ff809c
x104y8=ff809c
x105y8=ff829d
x106y8=ff839d
x107y8=ff829d
x108y8=ff839e
x109y8=ff7f9b
x110y8=fd819b
x111y8=f9839b
x112y8=eb889a
x113y8=c7818b
x114y8=8c4650
x115y8=e38293
x116y8=f7859c
x117y8=fd859e
x118y8=ff87a1
x119y8=fe7d9b
x120y8=ff7f9d
x121y8=ff83a0
x122y8=ff829d
x123y8=ff829b
x124y8=ff7f97
x125y8=f36782
x126y8=eb5c78
x127y8=fc728c
x128y8=ff7690
x129y8=ff7a94
x130y8=fb728c
x131y8=fd748e
x132y8=ff7b94
x133y8=ff819a
x134y8=ff819a
x135y8=ff7e96
x136y8=fd748e
x137y8=f46883
x138y8=fa6e89
x139y8=ff7a93
x140y8=f96f88
x141y8=f96f88
x142y8=f96f88
x143y8=fa7089
x144y8=f76d86
x145y8=ed657d
x146y8=ea627a
x147y8=e15d74
x148y8=e15d74
x149y8=e05c74
x150y8=df5b73
x151y8=e05b76
x152y8=dc5a74
x153y8=db5d75
x154y8=d65b70
x155y8=d2586d
x156y8=cb5467
x157y8=c44f61
x158y8=a33746
x159y8=832932
x160y8=6c1f25
x161y8=611f21
x162y8=6a2225
x163y8=8d2e36
x164y8=af3c49
x165y8=e36477
x166y8=f56f87
x167y8=fa718b
x168y8=ff7992
x169y8=ff839a
x170y8=ff839a
x171y8=f8748b
x172y8=dc677a
x173y8=a1515a
x174y8=4a161a
x175y8=3b191a
x176y8=371f1f
x1y9=ff8099
x2y9=fa7a93
x3y9=f97992
x4y9=fd7b95
x5y9=fd7b95
x6y9=ff7a95
x7y9=ff7c97
x8y9=ff7a95
x9y9=fe7a92
x10y9=f9758d
x11y9=fa768e
x12y9=fa748d
x13y9=f8728d
x14y9=f8728d
x15y9=f6708b
x16y9=f5708b
x17y9=fa7590
x18y9=ff7a95
x19y9=ff7a97
x20y9=ff7c9b
x21y9=fd7a99
x22y9=ff7e9d
x23y9=ff7e9a
x24y9=ff809c
x25y9=ff7d99
x26y9=ff7d98
x27y9=fe7591
x28y9=e45b75
x29y9=d84f69
x30y9=fa748d
x31y9=ff859d
x32y9=f8738e
x33y9=eb6580
x34y9=fd7694
x35y9=fc7593
x36y9=ff7997
x37y9=ff7a98
x38y9=ff7a98
x39y9=ff839e
x40y9=ff849e
x41y9=fe7f9a
x42y9=fc7a96
x43y9=ff7896
x44y9=ff7795
x45y9=ff7491
x46y9=f56f8a
x47y9=fe7e97
x48y9=ff849c
x49y9=f46f8a
x50y9=d44d6b
x51y9=f26889
x52y9=d64c6d
x53y9=d04667
x54y9=f56a8b
x55y9=f86d8c
x56y9=f7708e
x57y9=fb7a96
x58y9=ff829e
x59y9=ff7a97
x60y9=fe7893
x61y9=ff7892
x62y9=ff7892
x63y9=ff7894
x64y9=ff7c97
x65y9=ff819a
x66y9=ff7f99
x67y9=ff7c97
x68y9=ff7793
x69y9=ee6883
x70y9=ff7f9b
x71y9=ef6282
x72y9=eb5c7a
x73y9=f1607f
x74y9=fb6c88
x75y9=ff7690
x76y9=ff7a94
x77y9=fe7591
x78y9=ff7e99
x79y9=ff83a0
x80y9=ff84a0
x81y9=ff84a0
x82y9=fe829e
x83y9=ff819e
x84y9=ff829f
x85y9=ff839e
x86y9=ff829d
x87y9=ff849f
x88y9=ff819d
x89y9=ff7e9a
x90y9=ff819d
x91y9=ff7f9b
x92y9=ff7b98
x93y9=e15a7a
x94y9=f46d8d
x95y9=fd7897
x96y9=e76080
x97y9=ca3f5e
x98y9=ef6483
x99y9=fd7492
x100y9=ff7d9a
x101y9=ff7f9b
x102y9=ff839e
x103y9=ff819c
x104y9=ff819c
x105y9=ff829d
x106y9=ff839e
x107y9=ff829e
x108y9=ff809c
x109y9=ff7f9b
x110y9=f8829a
x111y9=e08292
x112y9=904a52
x113y9=976b6c
x114y9=825154
x115y9=b15f6b
x116y9=f3899d
x117y9=fe88a0
x118y9=ff859f
x119y9=ff809e
x120y9=ff7e9c
x121y9=ff86a1
x122y9=ff829d
x123y9=ff8099
x124y9=fb758e
x125y9=f1637d
x126y9=df516b
x127y9=ff7d95
x128y9=ff7b92
x129y9=ff7c94
x130y9=f8748c
x131y9=ff7c94
x132y9=ff7e96
x133y9=fe7e95
x134y9=ff8299
x135y9=ff7f97
x136y9=ff7690
x137y9=f76b85
x138y9=f96d87
x139y9=fe748d
x140y9=f36982
x141y9=f86c86
x142y9=f86c86
x143y9=f56b84
x144y9=ed657d
x145y9=e45e76
x146y9=e15d74
x147y9=e05c74
x148y9=dd5b73
x149y9=d95771
x150y9=dc5a74
x151y9=db5975
x152y9=d75770
x153y9=d0596f
x154y9=c95568
x155y9=bd4d5b
x156y9=a93947
x157y9=ad3848
x158y9=bf4f5d
x159y9=ad4754
x160y9=8a3039
x161y9=691e22
x162y9=6d1b1f
x163y9=a23441
x164y9=e16275
x165y9=f56d85
x166y9=fb718a
x167y9=fb758e
x168y9=ff7d98
x169y9=ff829a
x170y9=f9778f
x171y9=ea667d
x172y9=ce5f70
x173y9=7b3a40
x174y9=3b1717
x175y9=381e1f
x176y9=341e20
x1y10=ff7d97
x2y10=ff7e98
x3y10=fd7b95
x4y10=fb7993
x5y10=fe7994
x6y10=fc7792
x7y10=fb7691
x8y10=fb7691
x9y10=fd7991
x10y10=fc7890
x11y10=fc7890
x12y10=f9758d
x13y10=f8728d
x14y10=f8728d
x15y10=f36d88
x16y10=f36d88
x17y10=f5708b
x18y10=f97491
x19y10=ff7896
x20y10=fe7998
x21y10=fc7998
x22y10=ff7d99
x23y10=ff7a97
x24y10=ff7d9a
x25y10=ff7f9b
x26y10=fe7996
x27y10=ff7c97
x28y10=f66d87
x29y10=d74b66
x30y10=d64c65
x31y10=ff7b93
x32y10=ff8199
x33y10=f46f8a
x34y10=ed6684
x35y10=fd7694
x36y10=fa718f
x37y10=fb7290
x38y10=fc7593
x39y10=ff7f9b
x40y10=ff849f
x41y10=ff829d
x42y10=ff7e9a
x43y10=ff7a98
x44y10=ff7896
x45y10=ff7a97
x46y10=ee6581
x47y10=f5708b
x48y10=ff86a0
x49y10=fd7893
x50y10=d54f6a
x51y10=df5576
x52y10=c73c5d
x53y10=eb6081
x54y10=f46988
x55y10=fa6f8e
x56y10=ff7997
x57y10=ff7f9b
x58y10=fd7d96
x59y10=ff7994
x60y10=fd748e
x61y10=ff7791
x62y10=ff7690
x63y10=ff7a96
x64y10=ff7b96
x65y10=ff8099
x66y10=ff8099
x67y10=ff7b96
x68y10=ff7793
x69y10=f36d88
x70y10=ff7f9b
x71y10=f36686
x72y10=ea5a7b
x73y10=f56986
x74y10=ff7491
x75y10=ff7892
x76y10=ff7d96
x77y10=ff7692
x78y10=ff7e9c
x79y10=ff83a0
x80y10=ff84a0
x81y10=ff85a1
x82y10=ff86a2
x83y10=ff85a1
x84y10=ff83a0
x85y10=ff839d
x86y10=ff839e
x87y10=ff819d
x88y10=fe7d99
x89y10=ff7e9a
x90y10=ff7e9a
x91y10=ff819d
x92y10=f36e8b
x93y10=de5777
x94y10=f36c8c
x95y10=ef6888
x96y10=ca415f
x97y10=ef6282
x98y10=ff7695
x99y10=ff7997
x100y10=ff7e9a
x101y10=ff819c
x102y10=ff839d
x103y10=ff819c
x104y10=ff829d
x105y10=ff839e
x106y10=fe7d99
x107y10=ff7e9a
x108y10=ff7e9a
x109y10=ff7f9b
x110y10=f4849a
x111y10=9a4e58
x112y10=5c2c2c
x113y10=856663
x114y10=8b6361
x115y10=7f3941
x116y10=ea8c9c
x117y10=fa869d
x118y10=ff839e
x119y10=ff809e
x120y10=fe7d99
x121y10=ff829d
x122y10=ff839b
x123y10=ff7d95
x124y10=f46e87
x125y10=ec5e78
x126y10=df516b
x127y10=ff7e96
x128y10=ff8197
x129y10=ff7d95
x130y10=ff7b93
x131y10=ff7b93
x132y10=ff7f97
x133y10=ff8098
x134y10=ff7f97
x135y10=ff839b
x136y10=ff7b94
x137y10=f66c85
x138y10=fb6f89
x139y10=f66c85
x140y10=f0667f
x141y10=f26680
x142y10=f56983
x143y10=f0667f
x144y10=e45c74
x145y10=e05c73
x146y10=da596f
x147y10=da5b70
x148y10=d55a6f
x149y10=d35c72
x150y10=cc566c
x151y10=c75167
x152y10=bf4b60
x153y10=b64557
x154y10=9e2e3e
x155y10=8a1726
x156y10=a93542
x157y10=c84f60
x158y10=cd5465
x159y10=cf5f6f
x160y10=b74e5c
x161y10=882d34
x162y10=87262f
x163y10=d3586a
x164y10=f0667d
x165y10=fb6f89
x166y10=fb718a
x167y10=fc7792
x168y10=ff839d
x169y10=ff7d95
x170y10=ef6981
x171y10=e25e75
x172y10=bf5464
x173y10=5e2629
x174y10=361816
x175y10=331b1b
x176y10=331d1f
x1y11=fd7893
x2y11=fd7893
x3y11=ff7994
x4y11=fe7893
x5y11=fb7590
x6y11=fb7590
x7y11=fb7590
x8y11=f7718c
x9y11=f9738c
x10y11=fe7891
x11y11=fa768e
x12y11=ff7b93
x13y11=ff7d95
x14y11=fa748d
x15y11=f46e89
x16y11=f66d89
x17y11=f56c8a
x18y11=f76e8c
x19y11=f76e8c
x20y11=fa7391
x21y11=fe7996
x22y11=f87690
x23y11=ff7a95
x24y11=ff7c97
x25y11=fe7c98
x26y11=ff7d99
x27y11=fe7994
x28y11=ff7892
x29y11=f0647f
x30y11=ce425d
x31y11=d64e66
x32y11=fd7790
x33y11=ff7d98
x34y11=eb6681
x35y11=f46b87
x36y11=ff7794
x37y11=fd7492
x38y11=f97290
x39y11=fc7794
x40y11=ff819d
x41y11=ff809c
x42y11=ff809c
x43y11=ff7c99
x44y11=ff7896
x45y11=ff7895
x46y11=f16683
x47y11=e35973
x48y11=ff7a94
x49y11=ff809b
x50y11=da546f
x51y11=d14667
x52y11=e6597b
x53y11=f56c8a
x54y11=fb7290
x55y11=ff7795
x56y11=ff7b96
x57y11=ff7d98
x58y11=fc7792
x59y11=ff7491
x60y11=ff738e
x61y11=ff7791
x62y11=ff7791
x63y11=ff7995
x64y11=ff7b96
x65y11=fd7c98
x66y11=ff819d
x67y11=ff7e9c
x68y11=ff7a98
x69y11=f56f8a
x70y11=ff7b96
x71y11=f06383
x72y11=ed6080
x73y11=fc718e
x74y11=ff7a96
x75y11=fe7893
x76y11=ff7a95
x77y11=fd7792
x78y11=ff7e9b
x79y11=ff82a0
x80y11=ff83a1
x81y11=fe86a1
x82y11=ff87a2
x83y11=ff84a0
x84y11=ff829f
x85y11=ff839e
x86y11=ff839e
x87y11=ff7f9b
x88y11=fd7b97
x89y11=ff809c
x90y11=ff809c
x91y11=ff7e9a
x92y11=da5371
x93y11=e45b79
x94y11=fd7291
x95y11=d04564
x96y11=f46787
x97y11=fe7191
x98y11=ff7895
x99y11=ff7a98
x100y11=ff7f9b
x101y11=ff809c
x102y11=ff819c
x103y11=ff829e
x104y11=ff7f9b
x105y11=ff809c
x106y11=ff829e
x107y11=ff839e
x108y11=ff839e
x109y11=ff819a
x110y11=f2899a
x111y11=723638
x112y11=5e3b35
x113y11=83645f
x114y11=8d6563
x115y11=6d3035
x116y11=dc8691
x117y11=f8889e
x118y11=ff85a0
x119y11=ff819d
x120y11=ff7e9a
x121y11=ff829e
x122y11=ff829b
x123y11=f9758d
x124y11=ee657f
x125y11=e1556f
x126y11=e95d77
x127y11=fc748c
x128y11=ff7c94
x129y11=ff8198
x130y11=ff7a92
x131y11=ff7791
x132y11=ff7993
x133y11=ff7690
x134y11=ff7892
x135y11=ff849b
x136y11=ff7c93
x137y11=fb738b
x138y11=f76d86
x139y11=ee647d
x140y11=f0667f
x141y11=ef657e
x142y11=ec627b
x143y11=e15b74
x144y11=df5b72
x145y11=d9586c
x146y11=d15466
x147y11=c64f62
x148y11=bc4d5e
x149y11=a54050
x150y11=a04250
x151y11=973d47
x152y11=7f222c
x153y11=791320
x154y11=9e2b3a
x155y11=c7485d
x156y11=d55166
x157y11=db576e
x158y11=e26177
x159y11=e96a7f
x160y11=da5f71
x161y11=b33f4c
x162y11=c04756
x163y11=e75f75
x164y11=f96984
x165y11=fc6e88
x166y11=fe748d
x167y11=ff809b
x168y11=ff819b
x169y11=fb728c
x170y11=e65e76
x171y11=d8546b
x172y11=b84f5d
x173y11=461010
x174y11=341713
x175y11=341817
x176y11=361c1d
x1y12=ff7b96
x2y12=fc7691
x3y12=fa748f
x4y12=fb728e
x5y12=fa718d
x6y12=f9708c
x7y12=f9738e
x8y12=f7718c
x9y12=f56c86
x10y12=ed647e
x11y12=ea647d
x12y12=ed6780
x13y12=f7718a
x14y12=ff7b94
x15y12=ff7692
x16y12=f86f8b
x17y12=f86d8c
x18y12=f56a89
x19y12=f76c89
x20y12=f76e8a
x21y12=f7718c
x22y12=f6718c
x23y12=fb7590
x24y12=ff7b96
x25y12=ff7c99
x26y12=ff7c99
x27y12=fe7994
x28y12=ff7b96
x29y12=ff7892
x30y12=ea5e79
x31y12=c93f58
x32y12=d64e66
x33y12=ff7a93
x34y12=fe7893
x35y12=ee6581
x36y12=f76c89
x37y12=ff7a98
x38y12=fb7492
x39y12=f8718f
x40y12=ff7f9c
x41y12=ff809c
x42y12=ff7e9a
x43y12=fe7795
x44y12=ff7997
x45y12=ff7793
x46y12=f96d8a
x47y12=da4966
x48y12=f0617d
x49y12=ff829d
x50y12=e7627d
x51y12=d84b6d
x52y12=eb5e80
x53y12=fa718f
x54y12=ff7896
x55y12=ff7b97
x56y12=ff7894
x57y12=ff7994
x58y12=ff7692
x59y12=ff738e
x60y12=ff728e
x61y12=ff7891
x62y12=ff7892
x63y12=fe7893
x64y12=ff7b96
x65y12=fe7d99
x66y12=ff819d
x67y12=ff7e9b
x68y12=ff7997
x69y12=fb7590
x70y12=ff7f9a
x71y12=ee6183
x72y12=f36686
x73y12=ff7897
x74y12=ff7a96
x75y12=ff7793
x76y12=fc7691
x77y12=ff7c97
x78y12=ff7e9a
x79y12=ff84a2
x80y12=ff83a0
x81y12=ff87a2
x82y12=ff88a3
x83y12=ff85a2
x84y12=ff82a0
x85y12=ff819c
x86y12=ff7f9b
x87y12=ff7d99
x88y12=ff7e9a
x89y12=ff7f9b
x90y12=ff809c
x91y12=f46f8c
x92y12=ca4361
x93y12=fa6f8e
x94y12=e05373
x95y12=f16484
x96y12=fa6d8d
x97y12=fb708d
x98y12=ff7a96
x99y12=ff7d9a
x100y12=fe7d99
x101y12=ff7f9b
x102y12=ff7f9b
x103y12=ff809c
x104y12=ff809c
x105y12=ff819d
x106y12=ff7e9a
x107y12=ff839e
x108y12=fd839c
x109y12=fd869c
x110y12=d37583
x111y12=5e2c2b
x112y12=674a42
x113y12=8b6e68
x114y12=956f6c
x115y12=703d3c
x116y12=bd7078
x117y12=fb8ba1
x118y12=ff7f9b
x119y12=ff7f9b
x120y12=ff7d97
x121y12=ff7f99
x122y12=fb7993
x123y12=f26e86
x124y12=e7617a
x125y12=cb435b
x126y12=f56b84
x127y12=ee667e
x128y12=f76f87
x129y12=fa748c
x130y12=f26c84
x131y12=fb718b
x132y12=fc708b
x133y12=f96d88
x134y12=ff758f
x135y12=fd7990
x136y12=ff8096
x137y12=f56f87
x138y12=f06880
x139y12=e96179
x140y12=e66078
x141y12=de5d73
x142y12=d6586d
x143y12=cd586b
x144y12=c15263
x145y12=b54b59
x146y12=a53f4c
x147y12=892c37
x148y12=822a36
x149y12=71212a
x150y12=61141c
x151y12=620f17
x152y12=90333d
x153y12=c15765
x154y12=d75e6f
x155y12=e55f77
x156y12=ec607a
x157y12=ef677f
x158y12=e56075
x159y12=da556a
x160y12=c13c51
x161y12=bd3a4c
x162y12=db5367
x163y12=f4647f
x164y12=f66681
x165y12=fb6f89
x166y12=ff7890
x167y12=ff8199
x168y12=fb7991
x169y12=f06880
x170y12=e95f78
x171y12=d75267
x172y12=c45464
x173y12=772e35
x174y12=481617
x175y12=411718
x176y12=471f1f
x1y13=ff7892
x2y13=f8728b
x3y13=fb7590
x4y13=fc7691
x5y13=fb728e
x6y13=f86f8b
x7y13=f9738e
x8y13=f36d88
x9y13=f16b86
x10y13=e85f7b
x11y13=dc526c
x12y13=db516b
x13y13=e85c77
x14y13=f06680
x15y13=f86f89
x16y13=fd7790
x17y13=f9708c
x18y13=f9708c
x19y13=f86f89
x20y13=f66d87
x21y13=f86e88
x22y13=f86f8b
x23y13=f6708b
x24y13=fb7492
x25y13=fe7893
x26y13=ff7a95
x27y13=ff7a96
x28y13=ff7894
x29y13=ff7c98
x30y13=fd748e
x31y13=e0566f
x32y13=c33952
x33y13=d64e66
x34y13=ff7892
x35y13=fe7891
x36y13=ef6680
x37y13=f96e8b
x38y13=ff7e9a
x39y13=fb7693
x40y13=ff7e9b
x41y13=ff7c99
x42y13=ff7b99
x43y13=ff7795
x44y13=fd7492
x45y13=ff7793
x46y13=fd728f
x47y13=e5526f
x48y13=d74663
x49y13=ff7995
x50y13=f9748f
x51y13=d94c6e
x52y13=f76a8c
x53y13=fe7593
x54y13=ff7b99
x55y13=ff7a96
x56y13=ff7793
x57y13=fe7591
x58y13=ff7693
x59y13=ff7490
x60y13=ff718d
x61y13=ff7892
x62y13=ff7791
x63y13=fd7893
x64y13=fe7c98
x65y13=fd7c98
x66y13=ff829e
x67y13=ff829f
x68y13=ff7b99
x69y13=fc7691
x70y13=ff7c98
x71y13=ed6283
x72y13=f76c8b
x73y13=ff7997
x74y13=ff7b97
x75y13=fd728f
x76y13=ff7894
x77y13=ff7b96
x78y13=ff809c
x79y13=ff7f9d
x80y13=ff829f
x81y13=ff839f
x82y13=ff849f
x83y13=ff819d
x84y13=ff7e9a
x85y13=fe7d99
x86y13=fe7d99
x87y13=fe7c98
x88y13=ff7f9b
x89y13=ff819d
x90y13=ff7d99
x91y13=da5572
x92y13=d8516f
x93y13=fd728f
x94y13=ee627f
x95y13=fc708d
x96y13=f86d8a
x97y13=fd7792
x98y13=ff7e99
x99y13=ff819b
x100y13=ff819a
x101y13=fe7d99
x102y13=ff809b
x103y13=ff819d
x104y13=ff7f9b
x105y13=ff829d
x106y13=ff839e
x107y13=fe829a
x108y13=fc869c
x109y13=f28b9c
x110y13=ac5c65
x111y13=744742
x112y13=7b5f54
x113y13=846960
x114y13=90726a
x115y13=6f4141
x116y13=9f5860
x117y13=f4879c
x118y13=ff819d
x119y13=ff829b
x120y13=ff809a
x121y13=ff7e99
x122y13=f8748c
x123y13=ee6c84
x124y13=df5d75
x125y13=c64259
x126y13=e9637b
x127y13=e45c72
x128y13=e1596f
x129y13=e65e76
x130y13=ef677f
x131y13=ed657d
x132y13=ed657d
x133y13=f06880
x134y13=f06a82
x135y13=ef6b82
x136y13=f37288
x137y13=f46e86
x138y13=df5971
x139y13=e25e75
x140y13=da5c71
x141y13=c95467
x142y13=b14b59
x143y13=943e49
x144y13=7c333a
x145y13=642329
x146y13=581d23
x147y13=4c181c
x148y13=400e11
x149y13=410a0f
x150y13=621c24
x151y13=9a3d48
x152y13=c55565
x153y13=eb6d82
x154y13=ee6a81
x155y13=eb6379
x156y13=e75d74
x157y13=e25a70
x158y13=de596c
x159y13=c84555
x160y13=ad2839
x161y13=c94054
x162y13=ed5f75
x163y13=f76782
x164y13=fb6c88
x165y13=fa748c
x166y13=ff7f95
x167y13=fe7f94
x168y13=f06f85
x169y13=fd778f
x170y13=f87088
x171y13=ed657b
x172y13=e36479
x173y13=cc6070
x174y13=b35963
x175y13=833a41
x176y13=541617
x1y14=fc738d
x2y14=fb758e
x3y14=fa748f
x4y14=f7718c
x5y14=fb728e
x6y14=f86f8b
x7y14=f8728d
x8y14=f9738e
x9y14=f56f8a
x10y14=f06a85
x11y14=ef6680
x12y14=e25872
x13y14=d54964
x14y14=d14761
x15y14=d9506a
x16y14=f06781
x17y14=ff7791
x18y14=fd748e
x19y14=f7718a
x20y14=f97189
x21y14=f76d87
x22y14=f96e8b
x23y14=f86f8b
x24y14=f66f8d
x25y14=f9738e
x26y14=fb728e
x27y14=ff7692
x28y14=ff7995
x29y14=ff7a95
x30y14=ff7992
x31y14=f96f89
x32y14=d94f68
x33y14=c1354f
x34y14=d84e67
x35y14=ff7a92
x36y14=fb758e
x37y14=ef657f
x38y14=fe7591
x39y14=ff819e
x40y14=ff7c99
x41y14=fb7492
x42y14=f86f8d
x43y14=fc7391
x44y14=fc7391
x45y14=ff7d98
x46y14=ff7993
x47y14=f86582
x48y14=db4b66
x49y14=f9708c
x50y14=ff7f9a
x51y14=e35879
x52y14=f5688a
x53y14=fe7593
x54y14=ff7a98
x55y14=ff7793
x56y14=ff7793
x57y14=ff7491
x58y14=ff7693
x59y14=ff7490
x60y14=ff748f
x61y14=ff758f
x62y14=ff7994
x63y14=fe7996
x64y14=fc7b97
x65y14=ff809b
x66y14=ff839f
x67y14=ff829e
x68y14=fd7b97
x69y14=fc7792
x70y14=ff7b99
x71y14=ee6384
x72y14=f66b8c
x73y14=ff7a98
x74y14=ff7894
x75y14=ff7592
x76y14=ff7692
x77y14=ff7e98
x78y14=fe7e97
x79y14=ff809d
x80y14=ff829f
x81y14=ff819c
x82y14=ff809b
x83y14=ff7f9b
x84y14=ff7e9a
x85y14=ff809c
x86y14=fe7d99
x87y14=fd7b97
x88y14=ff7e9a
x89y14=ff809d
x90y14=f5708d
x91y14=c53e5c
x92y14=f26987
x93y14=f16582
x94y14=fa6e8b
x95y14=ff7390
x96y14=fd7490
x97y14=fe7994
x98y14=ff809a
x99y14=ff819a
x100y14=ff8099
x101y14=ff819c
x102y14=ff819c
x103y14=ff7e9a
x104y14=ff7f9b
x105y14=ff819c
x106y14=ff839d
x107y14=ff849c
x108y14=f9889c
x109y14=eb8f9c
x110y14=9f5a5f
x111y14=996c67
x112y14=896b61
x113y14=7f645b
x114y14=83665e
x115y14=6a4441
x116y14=844349
x117y14=f08398
x118y14=fe7996
x119y14=f7758f
x120y14=f4728c
x121y14=f47088
x122y14=f06c84
x123y14=eb6981
x124y14=ca4a61
x125y14=d15066
x126y14=e05c73
x127y14=d45065
x128y14=d45065
x129y14=e05a72
x130y14=e25c74
x131y14=e25c74
x132y14=de5a71
x133y14=da596f
x134y14=df6075
x135y14=d95b70
x136y14=d6586d
x137y14=d5546a
x138y14=cb4a60
x139y14=c44359
x140y14=af3448
x141y14=8f2031
x142y14=72121e
x143y14=560911
x144y14=410308
x145y14=3d060c
x146y14=38070b
x147y14=380b0e
x148y14=3f1113
x149y14=4a1618
x150y14=762e32
x151y14=a73c4c
x152y14=df6075
x153y14=e75f77
x154y14=e95f78
x155y14=e85e75
x156y14=ea6278
x157y14=e96175
x158y14=df5a6d
x159y14=ba3344
x160y14=bf3648
x161y14=e5576d
x162y14=f96982
x163y14=fa6b87
x164y14=fb718b
x165y14=ff7b92
x166y14=ff8499
x167y14=ff7e94
x168y14=ff7c93
x169y14=fc768e
x170y14=f66e86
x171y14=f0667d
x172y14=e65e76
x173y14=dc5d72
x174y14=ca5768
x175y14=94353d
x176y14=792429
x1y15=f8728b
x2y15=f9738c
x3y15=f9738e
x4y15=fa718d
x5y15=f86f8d
x6y15=f86f8d
x7y15=f8718f
x8y15=f6718e
x9y15=f46f8a
x10y15=f36e89
x11y15=f16b84
x12y15=f16b84
x13y15=e85f79
x14y15=d54c66
x15y15=c73f57
x16y15=c84058
x17y15=d85068
x18y15=f77189
x19y15=fe7a92
x20y15=fa748d
x21y15=fb708d
x22y15=f76c89
x23y15=f6708b
x24y15=f46e89
x25y15=f66f8d
x26y15=fa718f
x27y15=fa718d
x28y15=fb7590
x29y15=fb778f
x30y15=ff7c94
x31y15=ff7894
x32y15=f86e88
x33y15=d94d67
x34y15=c1364d
x35y15=da5067
x36y15=ff7991
x37y15=f86f89
x38y15=f26c87
x39y15=fd7895
x40y15=fc7794
x41y15=f97290
x42y15=f76e8c
x43y15=fa718f
x44y15=f9708e
x45y15=fd7792
x46y15=ff7a94
x47y15=fc708b
x48y15=e25670
x49y15=ee6581
x50y15=ff829d
x51y15=e75c7d
x52y15=f36889
x53y15=f46a8b
x54y15=fa7391
x55y15=fc738f
x56y15=fc738f
x57y15=ff7491
x58y15=ff7491
x59y15=ff7590
x60y15=ff7791
x61y15=fe748e
x62y15=ff7b97
x63y15=fc7a96
x64y15=fd7c9a
x65y15=ff829d
x66y15=ff849f
x67y15=ff829e
x68y15=fc7b97
x69y15=fc7c95
x70y15=ff7d99
x71y15=e96282
x72y15=fa7091
x73y15=ff7a98
x74y15=ff7995
x75y15=ff7a96
x76y15=fe7893
x77y15=ff8099
x78y15=ff8199
x79y15=ff839f
x80y15=ff86a2
x81y15=ff86a0
x82y15=ff859f
x83y15=ff86a1
x84y15=ff85a0
x85y15=ff849f
x86y15=fc7d98
x87y15=fd7c98
x88y15=ff819d
x89y15=ff7b96
x90y15=dc5671
x91y15=cc435f
x92y15=fe7591
x93y15=f36784
x94y15=f96d8a
x95y15=f76c89
x96y15=ff7a95
x97y15=ff7e98
x98y15=ff8099
x99y15=ff809a
x100y15=ff819a
x101y15=ff809b
x102y15=ff819c
x103y15=ff7f9d
x104y15=ff7f9d
x105y15=ff819d
x106y15=ff819c
x107y15=ff859c
x108y15=f6899c
x109y15=e08a93
x110y15=9c5c5d
x111y15=b68984
x112y15=9d7c73
x113y15=72564b
x114y15=7e6159
x115y15=6b4e48
x116y15=632b2e
x117y15=e77a8f
x118y15=f86f8d
x119y15=f56f8a
x120y15=ee6881
x121y15=ea667e
x122y15=e7657d
x123y15=e3637a
x124y15=b8384f
x125y15=d9576f
x126y15=d25167
x127y15=c24557
x128y15=c94c5e
x129y15=d5566b
x130y15=d5546a
x131y15=d7566c
x132y15=ce4f64
x133y15=c1485b
x134y15=c75063
x135y15=bf4c5d
x136y15=ad384a
x137y15=a93043
x138y15=a52a3e
x139y15=a02237
x140y15=9f2639
x141y15=a83346
x142y15=a4394b
x143y15=842837
x144y15=63111d
x145y15=590d19
x146y15=601720
x147y15=71282f
x148y15=6b2326
x149y15=671f20
x150y15=7e282b
x151y15=b33f4c
x152y15=e15c6f
x153y15=e85e75
x154y15=ea5f76
x155y15=e86076
x156y15=eb6379
x157y15=e75f73
x158y15=da5165
x159y15=bf3044
x160y15=d9475c
x161y15=f96982
x162y15=ff718b
x163y15=fe728d
x164y15=ff7993
x165y15=ff8298
x166y15=ff8197
x167y15=fd778f
x168y15=ff7a92
x169y15=fb738b
x170y15=f46c84
x171y15=f0667f
x172y15=ec647c
x173y15=de5d73
x174y15=c95061
x175y15=93252e
x176y15=a83f44
x1y16=f8728b
x2y16=f67089
x3y16=f56f8a
x4y16=f9708c
x5y16=f76e8c
x6y16=f9708e
x7y16=f8718f
x8y16=f66f8d
x9y16=f36d88
x10y16=f26c87
x11y16=ee6881
x12y16=f06a83
x13y16=ea647d
x14y16=e9637c
x15y16=da516b
x16y16=c94159
x17y16=c13951
x18y16=c64058
x19y16=e8627a
x20y16=fa748d
x21y16=ff758f
x22y16=fa718d
x23y16=f7718c
x24y16=f56f8a
x25y16=f86f8d
x26y16=f86f8d
x27y16=f86f8b
x28y16=f8728d
x29y16=f9758d
x30y16=fb7691
x31y16=fe7893
x32y16=ff7894
x33y16=fb718b
x34y16=d94d67
x35y16=be334a
x36y16=dd536a
x37y16=ff7a92
x38y16=f06c84
x39y16=f16c87
x40y16=fd7895
x41y16=fd7895
x42y16=fc7593
x43y16=f86f8d
x44y16=f9708e
x45y16=fc7792
x46y16=ff7b96
x47y16=ff7b95
x48y16=f06781
x49y16=e75e78
x50y16=ff819c
x51y16=f36c8a
x52y16=e45d7d
x53y16=ea6383
x54y16=f56e8c
x55y16=fe7593
x56y16=ff7692
x57y16=ff7592
x58y16=fe7390
x59y16=ff7892
x60y16=ff7690
x61y16=ff7791
x62y16=ff7b96
x63y16=fb7995
x64y16=ff7e9a
x65y16=ff809c
x66y16=ff849f
x67y16=ff829e
x68y16=fd7e99
x69y16=fe8098
x70y16=fe7c98
x71y16=de5777
x72y16=fc7293
x73y16=ff7997
x74y16=ff7a95
x75y16=ff7c97
x76y16=fd7b95
x77y16=ff819a
x78y16=ff829d
x79y16=ff839f
x80y16=ff85a1
x81y16=ff869f
x82y16=ff859e
x83y16=ff87a1
x84y16=ff839d
x85y16=ff829d
x86y16=fd7c98
x87y16=ff7e9a
x88y16=ff829e
x89y16=f6708b
x90y16=ca445f
x91y16=d34a66
x92y16=fd7490
x93y16=f96d8a
x94y16=f46885
x95y16=fa6f8c
x96y16=ff7c97
x97y16=ff7d97
x98y16=ff7f98
x99y16=ff819d
x100y16=ff819d
x101y16=ff809b
x102y16=ff809b
x103y16=ff809c
x104y16=ff809c
x105y16=ff7f9b
x106y16=ff839e
x107y16=fe829c
x108y16=f68b9d
x109y16=c97a80
x110y16=a16968
x111y16=bb908a
x112y16=a6857c
x113y16=7b5d53
x114y16=71544c
x115y16=685046
x116y16=572526
x117y16=e57e91
x118y16=ff7a97
x119y16=fd7792
x120y16=f46e87
x121y16=e7657d
x122y16=df5f76
x123y16=b83a50
x124y16=c14359
x125y16=cc4c63
x126y16=bd3f54
x127y16=b93e50
x128y16=bb4253
x129y16=bf4657
x130y16=c1485b
x131y16=c54a5e
x132y16=b73e51
x133y16=a12c3e
x134y16=992637
x135y16=ad3d4d
x136y16=cb5869
x137y16=d76073
x138y16=e4697d
x139y16=e7697e
x140y16=e7697f
x141y16=e3677f
x142y16=df697f
x143y16=d46b7c
x144y16=b55767
x145y16=9a4653
x146y16=a04d57
x147y16=ae515b
x148y16=93343a
x149y16=7f2326
x150y16=8e292d
x151y16=be414f
x152y16=e2596d
x153y16=f3687f
x154y16=ff748b
x155y16=fd738a
x156y16=ff778b
x157y16=e96074
x158y16=c4394e
x159y16=cf3b53
x160y16=f35f77
x161y16=fa6c86
x162y16=fc728c
x163y16=ff7c96
x164y16=ff8099
x165y16=ff7f96
x166y16=fd7990
x167y16=ff7790
x168y16=fc728b
x169y16=f97189
x170y16=f46c84
x171y16=ef657e
x172y16=e75f77
x173y16=dd5970
x174y16=ba3b4e
x175y16=ad3340
x176y16=e36b75
x1y17=fa718d
x2y17=f6708b
x3y17=f6708b
x4y17=f6708b
x5y17=f7718c
x6y17=f9708c
x7y17=f46986
x8y17=f26784
x9y17=ed617e
x10y17=ec607d
x11y17=e85e78
x12y17=ea617b
x13y17=e35a76
x14y17=e66079
x15y17=e45e77
x16y17=de5871
x17y17=d14b64
x18y17=c33b53
x19y17=c03850
x20y17=dd556d
x21y17=f97189
x22y17=fd7790
x23y17=fc7691
x24y17=f9738e
x25y17=f86f8b
x26y17=f96e8b
x27y17=f96e8b
x28y17=f66d89
x29y17=f76e8a
x30y17=f8728d
x31y17=fa748f
x32y17=ff7b96
x33y17=ff7793
x34y17=f66d87
x35y17=db516a
x36y17=be364c
x37y17=d85469
x38y17=fb7a90
x39y17=eb6681
x40y17=f46f8a
x41y17=ff7a97
x42y17=fe7996
x43y17=fb7492
x44y17=f97290
x45y17=ff7d99
x46y17=ff7d97
x47y17=ff7e98
x48y17=f9758d
x49y17=df5670
x50y17=ff809b
x51y17=f87690
x52y17=de5d79
x53y17=e96481
x54y17=f36c8a
x55y17=ff7a98
x56y17=ff7896
x57y17=ff7894
x58y17=ff7894
x59y17=ff7892
x60y17=ff7892
x61y17=fe7893
x62y17=ff7a95
x63y17=fe7994
x64y17=ff7f9b
x65y17=ff7e9a
x66y17=ff7f9d
x67y17=ff7f9b
x68y17=fd7c98
x69y17=ff7e9a
x70y17=fc7a96
x71y17=d64b6a
x72y17=fa6f8e
x73y17=ff7a95
x74y17=ff7e99
x75y17=ff7d99
x76y17=fd7c98
x77y17=ff7f9b
x78y17=fe7d99
x79y17=fe829e
x80y17=ff84a0
x81y17=ff85a1
x82y17=ff869f
x83y17=ff849e
x84y17=ff839e
x85y17=ff809e
x86y17=fc7b99
x87y17=ff809c
x88y17=ff7b96
x89y17=e45f7c
x90y17=be3954
x91y17=e05a73
x92y17=f9738c
x93y17=fa6f8c
x94y17=f66b88
x95y17=fc738f
x96y17=ff7b96
x97y17=ff7f98
x98y17=ff829d
x99y17=ff7f9d
x100y17=ff82a0
x101y17=ff8199
x102y17=fe8098
x103y17=ff7e98
x104y17=ff7f9b
x105y17=ff809b
x106y17=ff829d
x107y17=ff819c
x108y17=f5889d
x109y17=bf767d
x110y17=b2817d
x111y17=b38e88
x112y17=9b7d75
x113y17=6f4e47
x114y17=60423a
x115y17=574136
x116y17=552928
x117y17=bf6473
x118y17=eb758d
x119y17=e86881
x120y17=e8647c
x121y17=dd5e73
x122y17=cc4e63
x123y17=ba4055
x124y17=bc4559
x125y17=ae3548
x126y17=aa3142
x127y17=a82f3e
x128y17=94202d
x129y17=871725
x130y17=841623
x131y17=851221
x132y17=9a2535
x133y17=c55060
x134y17=e46f7f
x135y17=c75264
x136y17=a93043
x137y17=bd3d54
x138y17=ed6981
x139y17=ed6981
x140y17=e9647f
x141y17=e9647f
x142y17=e5657e
x143y17=e0697f
x144y17=d66d7e
x145y17=bb6977
x146y17=a6525f
x147y17=c25866
x148y17=a93741
x149y17=93262c
x150y17=9c2a32
x151y17=c03f51
x152y17=e0566d
x153y17=f76d84
x154y17=f3687f
x155y17=f2677c
x156y17=ea5f72
x157y17=ce4154
x158y17=c8394d
x159y17=e5516b
x160y17=f86581
x161y17=fd758d
x162y17=ff7e96
x163y17=ff7d95
x164y17=ff7f98
x165y17=ff7c94
x166y17=ff778f
x167y17=ff768d
x168y17=fb7188
x169y17=fa7288
x170y17=ed657b
x171y17=e45c74
x172y17=e45c74
x173y17=d14b63
x174y17=c94459
x175y17=f16e80
x176y17=ea6777
x1y18=f9708c
x2y18=f76e8a
x3y18=f7718c
x4y18=f7718c
x5y18=f7718c
x6y18=fa718d
x7y18=f36885
x8y18=f26683
x9y18=ee627f
x10y18=ef6481
x11y18=f06680
x12y18=f06781
x13y18=f06a85
x14y18=f26c87
x15y18=f16b84
x16y18=eb657e
x17y18=e55f78
x18y18=d8526b
x19y18=c94159
x20y18=bd354d
x21y18=cb435b
x22y18=f26a82
x23y18=ff7690
x24y18=ff7a94
x25y18=ff7692
x26y18=fb728e
x27y18=f76e8a
x28y18=f46b87
x29y18=f76e8a
x30y18=f56c88
x31y18=f86f8b
x32y18=f8728d
x33y18=ff7a98
x34y18=ff7b96
x35y18=fb728c
x36y18=de5870
x37y18=b73348
x38y18=d4556a
x39y18=fc7a92
x40y18=eb6b84
x41y18=f07089
x42y18=fb7a96
x43y18=ff7d99
x44y18=ff7f9b
x45y18=ff7f9b
x46y18=fc809a
x47y18=f9859c
x48y18=ef7d94
x49y18=d35f74
x50y18=e67287
x51y18=f28598
x52y18=d16479
x53y18=dc6c82
x54y18=e36f86
x55y18=f97f98
x56y18=fd7c98
x57y18=ff7b96
x58y18=ff7a95
x59y18=fe758f
x60y18=ff7b94
x61y18=ff7d98
x62y18=fe7994
x63y18=ff7d98
x64y18=ff7d99
x65y18=fe7c98
x66y18=fd7b97
x67y18=ff7d99
x68y18=ff809c
x69y18=ff7e9a
x70y18=f67490
x71y18=d64d69
x72y18=f76e8a
x73y18=ff7d98
x74y18=fe7e97
x75y18=ff809b
x76y18=fe7f9a
x77y18=ff7f9b
x78y18=ff809c
x79y18=ff809b
x80y18=fe829c
x81y18=ff85a1
x82y18=fe849d
x83y18=ff849c
x84y18=fd7e99
x85y18=fe7f9c
x86y18=ff809e
x87y18=ff7d99
x88y18=f6718c
x89y18=d34e69
x90y18=c23d58
x91y18=ea667e
x92y18=f9758d
x93y18=fb708d
x94y18=f96e8b
x95y18=fe7891
x96y18=ff7f97
x97y18=fe8098
x98y18=fc809a
x99y18=ff809d
x100y18=ff809e
x101y18=fd7f97
x102y18=ff8097
x103y18=ff7f98
x104y18=ff7f98
x105y18=ff809b
x106y18=fd819b
x107y18=ff849f
x108y18=f3889c
x109y18=c28082
x110y18=ab807a
x111y18=a4837a
x112y18=8d6f67
x113y18=76554e
x114y18=64463e
x115y18=5c443a
x116y18=4f2c28
x117y18=894550
x118y18=c96c7e
x119y18=d16275
x120y18=d75d72
x121y18=c54a5c
x122y18=b73c4e
x123y18=b3384d
x124y18=a92f44
x125y18=a72e41
x126y18=ba3f51
x127y18=c74d5c
x128y18=c44e5c
x129y18=c55764
x130y18=d26675
x131y18=e17380
x132y18=e47482
x133y18=c34e5e
x134y18=972131
x135y18=af3649
x136y18=e4667b
x137y18=f36f87
x138y18=ef6982
x139y18=ee6881
x140y18=e55f78
x141y18=e9657d
x142y18=e76b83
x143y18=e37689
x144y18=d57988
x145y18=b76b77
x146y18=b86672
x147y18=da6778
x148y18=c34455
x149y18=a32732
x150y18=b03240
x151y18=ce465a
x152y18=e2576e
x153y18=f0657c
x154y18=f3687f
x155y18=fb7083
x156y18=db4e5f
x157y18=bf3243
x158y18=d14256
x159y18=ed5d76
x160y18=ff728c
x161y18=ff7b94
x162y18=ff8098
x163y18=ff7a93
x164y18=fd778f
x165y18=fc748c
x166y18=fc728b
x167y18=fc7289
x168y18=f96f86
x169y18=f76f85
x170y18=e86076
x171y18=e35b71
x172y18=d95167
x173y18=d0485e
x174y18=f76f85
x175y18=f1697f
x176y18=ec6478
x1y19=f8728b
x2y19=f8728b
x3y19=f6708b
x4y19=f7718c
x5y19=f9708a
x6y19=fa718b
x7y19=f76e8a
x8y19=f46b87
x9y19=f9708a
x10y19=fa748d
x11y19=fa748f
x12y19=fc7792
x13y19=fa768e
x14y19=fa748d
x15y19=f9738c
x16y19=fa748d
x17y19=f67089
x18y19=ee6881
x19y19=e15d75
x20y19=cc465e
x21y19=c13750
x22y19=c2384f
x23y19=e15770
x24y19=fa728a
x25y19=ff7a93
x26y19=ff7b96
x27y19=fb7492
x28y19=f46d8b
x29y19=f66d89
x30y19=f96e8b
x31y19=f56a87
x32y19=f36a86
x33y19=f8718f
x34y19=ff7a98
x35y19=ff7f9a
x36y19=f7718a
x37y19=dd5970
x38y19=b93a4d
x39y19=cf5166
x40y19=f47b8e
x41y19=ea7087
x42y19=e2687f
x43y19=f57993
x44y19=f97d97
x45y19=fe829c
x46y19=f7859c
x47y19=ea8c9e
x48y19=dc8a98
x49y19=c97b88
x50y19=c17581
x51y19=d68d98
x52y19=bf7681
x53y19=c77e89
x54y19=c87885
x55y19=e18091
x56y19=f6869c
x57y19=fa7e96
x58y19=ff7b96
x59y19=f7728d
x60y19=fe7994
x61y19=fd7893
x62y19=fd7893
x63y19=ff7e9a
x64y19=ff7d99
x65y19=fe7d99
x66y19=fe7d99
x67y19=ff7d97
x68y19=ff7e98
x69y19=ff839e
x70y19=f47590
x71y19=d5506b
x72y19=f7728d
x73y19=fb7d95
x74y19=fd839a
x75y19=ff849e
x76y19=ff839d
x77y19=ff839b
x78y19=ff839b
x79y19=fe829a
x80y19=ff839b
x81y19=ff839d
x82y19=ff86a0
x83y19=ff829a
x84y19=ff829a
x85y19=fd7e99
x86y19=fe7f9a
x87y19=ff7d99
x88y19=eb6681
x89y19=d04b66
x90y19=c8445c
x91y19=f27088
x92y19=f4728a
x93y19=fa718b
x94y19=fe758f
x95y19=ff8098
x96y19=fc7e93
x97y19=fd8398
x98y19=fe8499
x99y19=ff809b
x100y19=ff839f
x101y19=ff819a
x102y19=ff8299
x103y19=ff7f98
x104y19=ff829d
x105y19=ff839b
x106y19=fe829a
x107y19=fd8199
x108y19=f28b9c
x109y19=be8281
x110y19=a58379
x111y19=a6867b
x112y19=886a5f
x113y19=7f5f54
x114y19=77594e
x115y19=6c4f47
x116y19=573937
x117y19=5d3a3e
x118y19=b07d84
x119y19=aa5864
x120y19=a94351
x121y19=982534
x122y19=bb3e50
x123y19=cf4d65
x124y19=eb6983
x125y19=f7758f
x126y19=f9778f
x127y19=f6758b
x128y19=f27489
x129y19=e87386
x130y19=d26173
x131y19=b44452
x132y19=8c1c28
x133y19=9c2835
x134y19=b94051
x135y19=e4667b
x136y19=f7768c
x137y19=f46e86
x138y19=ec667e
x139y19=fa748c
x140y19=fa798f
x141y19=f97b90
x142y19=e17887
x143y19=c77e87
x144y19=a1666a
x145y19=94565b
x146y19=c06f78
x147y19=e26b7e
x148y19=f56d83
x149y19=ef6a7d
x150y19=e86074
x151y19=e75971
x152y19=f2627b
x153y19=f2647c
x154y19=f2647a
x155y19=e75c6f
x156y19=c4394c
x157y19=bf3447
x158y19=e4596e
x159y19=ff758c
x160y19=ff7d95
x161y19=ff7c94
x162y19=ff7991
x163y19=fe748d
x164y19=fb7188
x165y19=f96f86
x166y19=f96f86
x167y19=f96f88
x168y19=f86e87
x169y19=f76d84
x170y19=ec6279
x171y19=cd4559
x172y19=c73f53
x173y19=f16c7f
x174y19=f36b81
x175y19=eb6379
x176y19=ec6279
x1y20=f67089
x2y20=f7718a
x3y20=fb7590
x4y20=f7718c
x5y20=f46e87
x6y20=f7718a
x7y20=f9708c
x8y20=fb7590
x9y20=f9738c
x10y20=f8748c
x11y20=f7728d
x12y20=f9748f
x13y20=f9758d
x14y20=fe7891
x15y20=ff7992
x16y20=fc768f
x17y20=fd7790
x18y20=fa748d
x19y20=f57189
x20y20=f06c84
x21y20=e25a72
x22y20=ca4057
x23y20=b82e45
x24y20=d74f67
x25y20=f36d86
x26y20=fd7893
x27y20=fd7895
x28y20=fd7895
x29y20=f8728d
x30y20=f86f8b
x31y20=f86f8b
x32y20=ea617d
x33y20=eb6482
x34y20=f87390
x35y20=fe7996
x36y20=fe7c96
x37y20=ee7387
x38y20=d86375
x39y20=af4352
x40y20=bf5664
x41y20=e98293
x42y20=e58294
x43y20=d77687
x44y20=d57789
x45y20=e38597
x46y20=e28e9e
x47y20=d18d9a
x48y20=af7a82
x49y20=9f7078
x50y20=b78c93
x51y20=b48a8e
x52y20=ac8286
x53y20=a2787c
x54y20=97666c
x55y20=9a5862
x56y20=c97887
x57y20=e48195
x58y20=ec7f96
x59y20=f07e95
x60y20=f57f97
x61y20=fc8098
x62y20=f5778f
x63y20=f77790
x64y20=ff8099
x65y20=fb7f99
x66y20=fa7e96
x67y20=fc8098
x68y20=fa8399
x69y20=fc889f
x70y20=e6748b
x71y20=d46077
x72y20=f7859c
x73y20=f48da0
x74y20=f28fa1
x75y20=f08a9f
x76y20=fc92a6
x77y20=f7889b
x78y20=f9889a
x79y20=fb879c
x80y20=fd879d
x81y20=fe849b
x82y20=fd819b
x83y20=fe8098
x84y20=ff8099
x85y20=fe8098
x86y20=ff839b
x87y20=f87692
x88y20=e15c77
x89y20=d04a63
x90y20=cf4b62
x91y20=f5758c
x92y20=f2748a
x93y20=f6748c
x94y20=f87a90
x95y20=fa8699
x96y20=f68b9b
x97y20=f28d9b
x98y20=f492a1
x99y20=f38da2
x100y20=f18a9f
x101y20=f18a9d
x102y20=f48da0
x103y20=f48a9e
x104y20=f3899d
x105y20=f58b9f
x106y20=f88fa0
x107y20=f68d9e
x108y20=e8919a
x109y20=b4817d
x110y20=a7877a
x111y20=97796e
x112y20=94766b
x113y20=8a6a5d
x114y20=7b5b4e
x115y20=6c4e46
x116y20=5b3f3b
x117y20=493534
x118y20=896c6e
x119y20=9f6a70
x120y20=b96d77
x121y20=da7a86
x122y20=ee7b8c
x123y20=f5758e
x124y20=f46e89
x125y20=ef6a85
x126y20=e46078
x127y20=d34f67
x128y20=bc3a52
x129y20=971b33
x130y20=840d23
x131y20=952032
x132y20=b84353
x133y20=c14857
x134y20=cb4e60
x135y20=fb7a90
x136y20=ff7d95
x137y20=ff7b93
x138y20=fe7890
x139y20=f17287
x140y20=d86576
x141y20=c3616e
x142y20=ae6169
x143y20=a47273
x144y20=805254
x145y20=935256
x146y20=af555f
x147y20=bb4255
x148y20=cb4158
x149y20=d74c63
x150y20=dd5267
x151y20=dc4c65
x152y20=e05069
x153y20=d8485f
x154y20=cb3d53
x155y20=cb4055
x156y20=bf364a
x157y20=e75e72
x158y20=ff7a91
x159y20=ff8197
x160y20=ff7890
x161y20=fc728b
x162y20=fc728b
x163y20=fc7188
x164y20=fb7087
x165y20=fb7087
x166y20=f96e85
x167y20=fb7087
x168y20=fa7087
x169y20=f36980
x170y20=da5266
x171y20=bb3445
x172y20=f36e7f
x173y20=f67184
x174y20=ed6579
x175y20=e75f75
x176y20=e45c74
x1y21=fb728c
x2y21=f9738c
x3y21=f7718a
x4y21=f6728a
x5y21=f9748f
x6y21=f9748f
x7y21=fc768f
x8y21=f9738c
x9y21=fd7490
x10y21=fa718d
x11y21=fc738d
x12y21=fa748d
x13y21=fb758e
x14y21=f8728b
x15y21=fb758e
x16y21=fd7790
x17y21=fa748c
x18y21=fb758d
x19y21=fb778f
x20y21=f8748c
x21y21=f7738b
x22y21=f26c84
x23y21=dd586d
x24y21=c13c51
x25y21=c23e55
x26y21=e56179
x27y21=fb7691
x28y21=fd7895
x29y21=fd7b97
x30y21=f7728d
x31y21=f8748c
x32y21=f16b84
x33y21=e25d7a
x34y21=ea6582
x35y21=f3718d
x36y21=f57b92
x37y21=ed8294
x38y21=e0838e
x39y21=c6757c
x40y21=b26970
x41y21=b16f73
x42y21=c58a8e
x43y21=ca999d
x44y21=b48a8e
x45y21=ac8389
x46y21=ad888f
x47y21=a9898e
x48y21=90757a
x49y21=6f5a5f
x50y21=6d5a5e
x51y21=726265
x52y21=6d5d60
x53y21=766367
x54y21=70595f
x55y21=67484e
x56y21=673f48
x57y21=96606d
x58y21=b97785
x59y21=d58495
x60y21=de8193
x61y21=ed8397
x62y21=ef7b90
x63y21=ea7085
x64y21=f1768b
x65y21=f78096
x66y21=f27e93
x67y21=eb7e91
x68y21=f18a9b
x69y21=ed8f9f
x70y21=dd8293
x71y21=ce7384
x72y21=e593a1
x73y21=d998a0
x74y21=d3989e
x75y21=d79aa2
x76y21=e39da8
x77y21=e694a0
x78y21=eb939f
x79y21=ec8e9e
x80y21=f28b9c
x81y21=fb879c
x82y21=fd839a
x83y21=ff839b
x84y21=ff7f98
x85y21=ff7d95
x86y21=fe7c94
x87y21=ee6c86
x88y21=e6627a
x89y21=d34b63
x90y21=d75267
x91y21=f4748b
x92y21=f2788f
x93y21=ee798c
x94y21=e77c8c
x95y21=eb8f9c
x96y21=de929c
x97y21=d5979c
x98y21=d39ca1
x99y21=ca959d
x100y21=bf8a92
x101y21=c9969d
x102y21=cb969c
x103y21=cf969d
x104y21=d4959e
x105y21=d28f96
x106y21=db969b
x107y21=da9399
x108y21=c58989
x109y21=a77f77
x110y21=a98c7e
x111y21=a7897e
x112y21=b5978c
x113y21=8c6c5f
x114y21=7b594d
x115y21=68483d
x116y21=60433b
x117y21=4c3734
x118y21=503c3d
x119y21=967d80
x120y21=ac8389
x121y21=bb7881
x122y21=b95d6c
x123y21=c14c5f
x124y21=c24157
x125y21=bf3b52
x126y21=b9354c
x127y21=b63249
x128y21=bc3a52
x129y21=c4465c
x130y21=ca4f64
x131y21=e6687e
x132y21=f3758a
x133y21=f97a8d
x134y21=ff7e93
x135y21=ff778f
x136y21=fc728b
x137y21=f1657f
x138y21=df5b72
x139y21=c95466
x140y21=bb616b
x141y21=9f6969
x142y21=9f7976
x143y21=825a5a
x144y21=814a4f
x145y21=b7646e
x146y21=c85d6d
x147y21=ca4f63
x148y21=c33e53
x149y21=b92e45
x150y21=b2243a
x151y21=b4243b
x152y21=c13148
x153y21=ce3e57
x154y21=d84d64
x155y21=db5168
x156y21=fa7288
x157y21=ff8096
x158y21=ff7c92
x159y21=ff758c
x160y21=fb7087
x161y21=fb6d85
x162y21=fc6e86
x163y21=f86a82
x164y21=f76981
x165y21=f5677f
x166y21=ed6279
x167y21=ed6279
x168y21=e65d71
x169y21=d74f63
x170y21=b83344
x171y21=ec6778
x172y21=f36e7f
x173y21=f16c7f
x174y21=eb6377
x175y21=e45c72
x176y21=da556a
x1y22=fa718b
x2y22=f8728b
x3y22=fa748d
x4y22=f6728a
x5y22=f7728d
x6y22=f7728d
x7y22=f67089
x8y22=f9708a
x9y22=f96f89
x10y22=fa708a
x11y22=f86f89
x12y22=f76e88
x13y22=f9738c
x14y22=fb758e
x15y22=f9758d
x16y22=f8748c
x17y22=f9738c
x18y22=f9738c
x19y22=f8728b
x20y22=f6728a
x21y22=fb778f
x22y22=f6728a
x23y22=f67088
x24y22=f06a82
x25y22=d34f66
x26y22=bd3951
x27y22=d6516c
x28y22=f3718b
x29y22=fd7b95
x30y22=fc7c95
x31y22=fa798f
x32y22=f97a8f
x33y22=ee6f8a
x34y22=db617a
x35y22=da657f
x36y22=da7489
x37y22=d58794
x38y22=c98c93
x39y22=c18f92
x40y22=bd9395
x41y22=b69292
x42y22=aa8e8d
x43y22=9f8d8b
x44y22=928785
x45y22=867a7a
x46y22=736769
x47y22=6e6264
x48y22=706667
x49y22=635a5d
x50y22=5a5458
x51y22=454142
x52y22=3f3b3c
x53y22=443b3c
x54y22=473d3e
x55y22=433739
x56y22=483537
x57y22=4c3235
x58y22=5b373b
x59y22=804d54
x60y22=b77881
x61y22=d48894
x62y22=e28a98
x63y22=e07e8d
x64y22=de7989
x65y22=db7a8b
x66y22=d57988
x67y22=c97380
x68y22=ca7c89
x69y22=d38f9a
x70y22=c1828b
x71y22=be808b
x72y22=c8939b
x73y22=b59193
x74y22=a08284
x75y22=af8f92
x76y22=bf989d
x77y22=c49399
x78y22=c88f96
x79y22=c78891
x80y22=d88e9b
x81y22=e68f9f
x82y22=eb8d9f
x83y22=f18ba0
x84y22=f1869a
x85y22=f78396
x86y22=ef788c
x87y22=d96379
x88y22=e06b7e
x89y22=cc5666
x90y22=d96677
x91y22=e37689
x92y22=eb8698
x93y22=da7f8e
x94y22=c77986
x95y22=bb7e86
x96y22=b88b90
x97y22=af8f90
x98y22=a08687
x99y22=a0878a
x100y22=9b8587
x101y22=998586
x102y22=9e8988
x103y22=9f8586
x104y22=9e7e7f
x105y22=9b7876
x106y22=926a68
x107y22=9b6f6c
x108y22=a17872
x109y22=96766b
x110y22=aa8c81
x111y22=a7897f
x112y22=a07f76
x113y22=826054
x114y22=815f53
x115y22=725044
x116y22=62443a
x117y22=5d4843
x118y22=3a2c2b
x119y22=5c5251
x120y22=776466
x121y22=a57c82
x122y22=9f6269
x123y22=b8656f
x124y22=ce6c79
x125y22=dc7381
x126y22=e27683
x127y22=e77b8a
x128y22=ee7f90
x129y22=f88497
x130y22=fb8497
x131y22=f57a8f
x132y22=ef7488
x133y22=ef7488
x134y22=ed7082
x135y22=ef7085
x136y22=e26378
x137y22=de6479
x138y22=d06376
x139y22=be6674
x140y22=a1646b
x141y22=997d7a
x142y22=806b66
x143y22=674140
x144y22=a96b70
x145y22=d17582
x146y22=df6e80
x147y22=e6687d
x148y22=e56075
x149y22=e15369
x150y22=dd4d64
x151y22=e3556b
x152y22=e3586f
x153y22=f3687f
x154y22=fd738c
x155y22=ff7d96
x156y22=ff7d95
x157y22=ff7a90
x158y22=fc748a
x159y22=fc7188
x160y22=fa6c84
x161y22=f6667f
x162y22=f06079
x163y22=ea5c74
x164y22=e55a71
x165y22=e3556d
x166y22=e4596e
x167y22=e2576c
x168y22=cf4658
x169y22=b83344
x170y22=e66373
x171y22=f16e7e
x172y22=ec677a
x173y22=e96175
x174y22=ea6276
x175y22=e45c72
x176y22=d74f65
x1y23=fa748d
x2y23=fc768f
x3y23=f8728d
x4y23=fa748f
x5y23=fb758e
x6y23=f9738c
x7y23=f9708c
x8y23=f96f89
x9y23=f86e88
x10y23=f96f89
x11y23=f76e88
x12y23=f9708a
x13y23=f67089
x14y23=f8728a
x15y23=f56f88
x16y23=f8728b
x17y23=f7728d
x18y23=f56f8a
x19y23=f8728b
x20y23=fa728a
x21y23=fa718b
x22y23=fa718b
x23y23=f8728d
x24y23=f26d88
x25y23=f36d86
x26y23=e7617a
x27y23=c64259
x28y23=d15066
x29y23=f06e86
x30y23=fa7a91
x31y23=f87a90
x32y23=f87e93
x33y23=f78398
x34y23=e57b8f
x35y23=cc7182
x36y23=c6828d
x37y23=b38f93
x38y23=a89696
x39y23=a59999
x40y23=9b9190
x41y23=938988
x42y23=8f8785
x43y23=7f7979
x44y23=757172
x45y23=797375
x46y23=585254
x47y23=4c4442
x48y23=524a48
x49y23=534a4d
x50y23=5c5356
x51y23=52494a
x52y23=3d3532
x53y23=3b302c
x54y23=3c312b
x55y23=3b2e28
x56y23=392a25
x57y23=3e2b25
x58y23=412925
x59y23=402625
x60y23=583a3a
x61y23=846062
x62y23=af8287
x63y23=c88f98
x64y23=c2848f
x65y23=b17881
x66y23=a46f77
x67y23=946166
x68y23=6f4247
x69y23=8f6c70
x70y23=97787d
x71y23=95767c
x72y23=a2878c
x73y23=9a8789
x74y23=897a7d
x75y23=94858a
x76y23=a7989d
x77y23=9c8c8f
x78y23=a08d8f
x79y23=9b8588
x80y23=9d8287
x81y23=b08d93
x82y23=bb9097
x83y23=d09ba5
x84y23=d6929d
x85y23=e18997
x86y23=dc7c8a
x87y23=c46877
x88y23=d07884
x89y23=c27076
x90y23=ca7d83
x91y23=c9818c
x92y23=cc8f97
x93y23=a6777f
x94y23=815e64
x95y23=826b71
x96y23=87777a
x97y23=8e8282
x98y23=8b8180
x99y23=7d7171
x100y23=827877
x101y23=7d7573
x102y23=7f7775
x103y23=877d7b
x104y23=7e736f
x105y23=7f726a
x106y23=7b6861
x107y23=775b57
x108y23=ae918b
x109y23=b2958d
x110y23=a78a82
x111y23=a88984
x112y23=a98881
x113y23=88665c
x114y23=6c4a3e
x115y23=634135
x116y23=65473f
x117y23=6c5752
x118y23=372928
x119y23=2f2524
x120y23=3f3534
x121y23=91827f
x122y23=998481
x123y23=866764
x124y23=8a615f
x125y23=a67372
x126y23=b47878
x127y23=c38182
x128y23=d78b8f
x129y23=dd808a
x130y23=e27a85
x131y23=e57686
x132y23=ea7b8b
x133y23=ea7b8b
x134y23=e87c8b
x135y23=e37784
x136y23=dc7884
x137y23=c97881
x138y23=a1646c
x139y23=a27780
x140y23=a5888d
x141y23=8e7c7c
x142y23=5b4341
x143y23=936567
x144y23=b67176
x145y23=c66a75
x146y23=d56677
x147y23=db5d72
x148y23=db566b
x149y23=e05268
x150y23=ec5e74
x151y23=f66c83
x152y23=fc778c
x153y23=ff7b93
x154y23=ff8098
x155y23=ff7b93
x156y23=ff768f
x157y23=f96f86
x158y23=f96f86
x159y23=f96e85
x160y23=f0657c
x161y23=ea5f76
x162y23=e65b72
x163y23=e75c73
x164y23=ea6077
x165y23=eb6075
x166y23=e65d71
x167y23=d04759
x168y23=bd3647
x169y23=ee697a
x170y23=f67182
x171y23=e96477
x172y23=e56075
x173y23=eb6379
x174y23=e75f75
x175y23=dc5367
x176y23=d54c60
x1y24=f9708a
x2y24=f9738c
x3y24=f6708b
x4y24=f9738e
x5y24=f9738c
x6y24=f9738c
x7y24=f66d87
x8y24=f86f89
x9y24=f9708a
x10y24=f86f89
x11y24=fb728c
x12y24=f8728b
x13y24=f7718a
x14y24=f8728a
x15y24=f8728b
x16y24=f56f88
x17y24=f6708b
x18y24=f8728d
x19y24=f9708a
x20y24=f9708a
x21y24=f86e88
x22y24=f56c86
x23y24=f36c8a
x24y24=f36e8b
x25y24=f5708b
x26y24=f47088
x27y24=eb6a80
x28y24=d25368
x29y24=cc5366
x30y24=e77285
x31y24=ed7c8e
x32y24=ed8495
x33y24=e68a99
x34y24=d48894
x35y24=c28992
x36y24=ad8a90
x37y24=a29899
x38y24=8e9291
x39y24=858b8b
x40y24=818787
x41y24=787c7d
x42y24=737476
x43y24=676769
x44y24=6b696c
x45y24=605c5d
x46y24=595353
x47y24=564e4c
x48y24=49413f
x49y24=483f40
x50y24=494041
x51y24=524847
x52y24=4a413c
x53y24=40332d
x54y24=3a2d25
x55y24=352820
x56y24=34271f
x57y24=34251e
x58y24=35261f
x59y24=30231d
x60y24=322421
x61y24=382828
x62y24=554142
x63y24=86676c
x64y24=937378
x65y24=644648
x66y24=4f3234
x67y24=442827
x68y24=402828
x69y24=423232
x70y24=5d5151
x71y24=6c6060
x72y24=716567
x73y24=807778
x74y24=837d7f
x75y24=857f83
x76y24=8c878b
x77y24=8f8d8e
x78y24=8b898a
x79y24=929091
x80y24=918d8c
x81y24=908886
x82y24=a19393
x83y24=b09a9d
x84y24=bc979e
x85y24=cb939c
x86y24=cb8c95
x87y24=c1848c
x88y24=c0878d
x89y24=ae7c7d
x90y24=ad7f81
x91y24=a67c80
x92y24=9f7c82
x93y24=695356
x94y24=716567
x95y24=696468
x96y24=7e7c7f
x97y24=7e7c7d
x98y24=7d7978
x99y24=736f6e
x100y24=6d6968
x101y24=706c6b
x102y24=6b6a66
x103y24=686763
x104y24=6a6a62
x105y24=66635a
x106y24=5c554b
x107y24=796861
x108y24=907973
x109y24=967d78
x110y24=9a7e7a
x111y24=a68784
x112y24=a2817c
x113y24=87655c
x114y24=765448
x115y24=6b493f
x116y24=674a42
x117y24=86716c
x118y24=342623
x119y24=261e1b
x120y24=54514c
x121y24=898883
x122y24=898981
x123y24=918e87
x124y24=837a73
x125y24=89756e
x126y24=7f625c
x127y24=896660
x128y24=956865
x129y24=b07273
x130y24=ce868a
x131y24=d98c94
x132y24=e2959d
x133y24=dd9098
x134y24=cc8188
x135y24=c67b82
x136y24=b47379
x137y24=996b6e
x138y24=a48688
x139y24=a09093
x140y24=908486
x141y24=5b4949
x142y24=745455
x143y24=a26b6e
x144y24=a6595f
x145y24=bb5664
x146y24=d96476
x147y24=d7566a
x148y24=e0586e
x149y24=e55a71
x150y24=f56a81
x151y24=ff7a90
x152y24=ff8198
x153y24=ff7e96
x154y24=fd758d
x155y24=f96f88
x156y24=f96f88
x157y24=f96e85
x158y24=f86d84
x159y24=f36980
x160y24=f2687f
x161y24=f1677e
x162y24=f1677e
x163y24=ee647b
x164y24=ef667a
x165y24=e45b6f
x166y24=cd4456
x167y24=c0394a
x168y24=eb6473
x169y24=f0697a
x170y24=e86376
x171y24=e76275
x172y24=e76277
x173y24=e55d73
x174y24=e0586e
x175y24=d74e62
x176y24=d54c60
x1y25=f76d87
x2y25=f66d87
x3y25=f9738c
x4y25=f8728b
x5y25=f7728d
x6y25=f7738b
x7y25=f7718a
x8y25=f8728b
x9y25=fa748d
x10y25=fa748d
x11y25=f67089
x12y25=f6728a
x13y25=f47088
x14y25=f6728a
x15y25=f36d85
x16y25=f7718a
x17y25=f76e88
x18y25=f76e88
x19y25=f86f8b
x20y25=f56c86
x21y25=f76e88
x22y25=f46e87
x23y25=f36d86
x24y25=f7738b
x25y25=f7758f
x26y25=f97992
x27y25=f5778f
x28y25=f27b91
x29y25=cb5e71
x30y25=c76272
x31y25=d77989
x32y25=da8896
x33y25=c88c94
x34y25=ba9398
x35y25=a89496
x36y25=948e90
x37y25=8f9092
x38y25=858a8d
x39y25=7f8386
x40y25=82878a
x41y25=7c8083
x42y25=6d7172
x43y25=615f62
x44y25=5a5657
x45y25=595554
x46y25=645c5a
x47y25=716765
x48y25=6c6060
x49y25=5c5253
x50y25=574d4e
x51y25=5b5150
x52y25=4d4341
x53y25=40322f
x54y25=3e312b
x55y25=3f302b
x56y25=362923
x57y25=32251f
x58y25=352724
x59y25=2a1f1b
x60y25=2d1f1e
x61y25=2e1e1e
x62y25=2f1f1f
x63y25=332121
x64y25=382626
x65y25=2f201d
x66y25=281914
x67y25=2b1c17
x68y25=322421
x69y25=312624
x70y25=3b312f
x71y25=483e3c
x72y25=584e4d
x73y25=635958
x74y25=746b6c
x75y25=726c6e
x76y25=7b7577
x77y25=807a7c
x78y25=8a8484
x79y25=837d7d
x80y25=94908f
x81y25=94908d
x82y25=96928f
x83y25=a49f9c
x84y25=a79d9c
x85y25=a9999a
x86y25=ad999a
x87y25=a58f92
x88y25=a58f92
x89y25=9e8a8b
x90y25=7a6868
x91y25=6f5c5e
x92y25=6c5c5f
x93y25=5e5254
x94y25=544b4c
x95y25=696566
x96y25=5e5c5d
x97y25=656160
x98y25=686463
x99y25=636260
x100y25=5d5c5a
x101y25=656160
x102y25=65615e
x103y25=5b5754
x104y25=54514c
x105y25=5a554f
x106y25=544d45
x107y25=786962
x108y25=6f5c56
x109y25=9d8883
x110y25=ab948e
x111y25=907470
x112y25=7b5c59
x113y25=76554e
x114y25=725047
x115y25=6b4b40
x116y25=785c51
x117y25=b4a099
x118y25=3a2b26
x119y25=29211e
x120y25=5a5752
x121y25=898883
x122y25=8a8985
x123y25=858681
x124y25=8f8c87
x125y25=928b85
x126y25=8d827c
x127y25=897c76
x128y25=8a7b76
x129y25=826d6a
x130y25=8c7472
x131y25=8e7475
x132y25=a48c8c
x133y25=af9797
x134y25=a68e8e
x135y25=a3898a
x136y25=aa9194
x137y25=ab989a
x138y25=9e9292
x139y25=908886
x140y25=6d5f5e
x141y25=624446
x142y25=936568
x143y25=ab6a6e
x144y25=b15c63
x145y25=c95969
x146y25=e16074
x147y25=ef657c
x148y25=ef647b
x149y25=f66e84
x150y25=ff7f97
x151y25=ff7c94
x152y25=ff7a92
x153y25=fe768e
x154y25=f96f88
x155y25=f96d87
x156y25=f86d84
x157y25=fa6c84
x158y25=f56a81
x159y25=f56d85
x160y25=f16b83
x161y25=f1697f
x162y25=f36b81
x163y25=f1687c
x164y25=e45b6d
x165y25=c73e50
x166y25=c2394b
x167y25=ec6375
x168y25=ed6677
x169y25=eb6377
x170y25=e65e72
x171y25=e66174
x172y25=e56073
x173y25=df5a6d
x174y25=db5367
x175y25=d54d63
x176y25=d64e64
x1y26=f96f89
x2y26=f76e88
x3y26=f67089
x4y26=f67089
x5y26=f9748f
x6y26=f8748c
x7y26=f6728a
x8y26=fb758e
x9y26=fa748d
x10y26=f9738c
x11y26=fc768f
x12y26=f6728a
x13y26=f7738b
x14y26=f9738c
x15y26=f9738b
x16y26=fa728a
x17y26=f87088
x18y26=fa718b
x19y26=f86f89
x20y26=f86f8b
x21y26=f46e87
x22y26=f67089
x23y26=f6728a
x24y26=f7758d
x25y26=f7778e
x26y26=f2788f
x27y26=ed7c90
x28y26=dd7689
x29y26=dd8794
x30y26=ca818c
x31y26=bd7b85
x32y26=b48188
x33y26=a08083
x34y26=8e7e7f
x35y26=8a8889
x36y26=808485
x37y26=777b7e
x38y26=747579
x39y26=717276
x40y26=727375
x41y26=717274
x42y26=676769
x43y26=605c5d
x44y26=5c5656
x45y26=5f5754
x46y26=544b46
x47y26=504543
x48y26=584d4b
x49y26=5c5251
x50y26=635958
x51y26=605654
x52y26=544b46
x53y26=483a37
x54y26=3c2e2b
x55y26=382924
x56y26=362923
x57y26=2e231f
x58y26=2d241f
x59y26=2d2321
x60y26=2a1f1d
x61y26=2a1c1b
x62y26=2b1d1c
x63y26=271c1a
x64y26=251c17
x65y26=251c17
x66y26=261d18
x67y26=241d15
x68y26=28211b
x69y26=302825
x70y26=3a322f
x71y26=524846
x72y26=5a504e
x73y26=5b5150
x74y26=564c4b
x75y26=6c6666
x76y26=615b5b
x77y26=685f60
x78y26=706768
x79y26=615b5b
x80y26=797373
x81y26=7e7a77
x82y26=696864
x83y26=929290
x84y26=9ea09d
x85y26=9ea09d
x86y26=989898
x87y26=989697
x88y26=8a8687
x89y26=7e7a79
x90y26=716d6c
x91y26=605758
x92y26=615859
x93y26=5a5454
x94y26=4f4949
x95y26=7d7978
x96y26=6b6766
x97y26=54504f
x98y26=565251
x99y26=5c5b59
x100y26=585755
x101y26=696564
x102y26=635f5e
x103y26=5f5b58
x104y26=63605b
x105y26=706b67
x106y26=6a635d
x107y26=5e514b
x108y26=60514a
x109y26=826f69
x110y26=9d8680
x111y26=907470
x112y26=6b4c47
x113y26=553631
x114y26=4b2c27
x115y26=5a3e33
x116y26=967e74
x117y26=917e77
x118y26=372a24
x119y26=251d1a
x120y26=3e3b36
x121y26=6c6b67
x122y26=7c7b77
x123y26=8a8a88
x124y26=91928d
x125y26=8e8d89
x126y26=918e89
x127y26=7f7e79
x128y26=84837e
x129y26=8a8985
x130y26=868782
x131y26=848580
x132y26=7d7f7a
x133y26=7f817c
x134y26=7d7e79
x135y26=4b4a48
x136y26=595554
x137y26=666261
x138y26=676362
x139y26=696460
x140y26=443230
x141y26=7b5354
x142y26=a76c70
x143y26=b1666b
x144y26=c2626d
x145y26=e56c7d
x146y26=f66e84
x147y26=f56a81
x148y26=ff748b
x149y26=ff7e96
x150y26=ff7991
x151y26=f9738b
x152y26=f97189
x153y26=f76d86
x154y26=f86e85
x155y26=fa6f86
x156y26=f86d84
x157y26=f66880
x158y26=f66b82
x159y26=f26a80
x160y26=f16c81
x161y26=f1697f
x162y26=ef677b
x163y26=e1586a
x164y26=c1384a
x165y26=d1485a
x166y26=eb6274
x167y26=f06578
x168y26=ed6476
x169y26=e86074
x170y26=e75f73
x171y26=e76275
x172y26=de596c
x173y26=dc576a
x174y26=d65164
x175y26=d74f65
x176y26=d74f65
x1y27=fa718b
x2y27=f56f88
x3y27=fb7590
x4y27=fa748f
x5y27=f9738c
x6y27=f9738c
x7y27=fc768f
x8y27=fd748e
x9y27=fd748e
x10y27=fb758e
x11y27=f9738c
x12y27=fc768f
x13y27=fb758e
x14y27=fb738b
x15y27=fb718b
x16y27=f76d86
x17y27=f87088
x18y27=f76f87
x19y27=f86f89
x20y27=fc738d
x21y27=fc7691
x22y27=f8748c
x23y27=f8768e
x24y27=f7778e
x25y27=f57b90
x26y27=ef8091
x27y27=e68896
x28y27=d48791
x29y27=cc9098
x30y27=bd949a
x31y27=ae9599
x32y27=a7989b
x33y27=978d8c
x34y27=817c79
x35y27=767475
x36y27=767678
x37y27=757074
x38y27=6a6569
x39y27=5e595d
x40y27=5a5456
x41y27=5d5757
x42y27=6c6364
x43y27=5b5351
x44y27=574f4c
x45y27=69605b
x46y27=574c46
x47y27=544945
x48y27=5d544f
x49y27=514843
x50y27=4f4641
x51y27=4e4540
x52y27=4a413a
x53y27=463933
x54y27=40332d
x55y27=352724
x56y27=2e231f
x57y27=2d241f
x58y27=2b241e
x59y27=2f2822
x60y27=2d2620
x61y27=2e2520
x62y27=2b201c
x63y27=251c17
x64y27=281f1a
x65y27=261c1a
x66y27=211916
x67y27=201b15
x68y27=232019
x69y27=2d2522
x70y27=38302d
x71y27=453c37
x72y27=4e433f
x73y27=4c413f
x74y27=4b4140
x75y27=45403d
x76y27=5f5a57
x77y27=59514f
x78y27=49413f
x79y27=463e3c
x80y27=5a5250
x81y27=5b5253
x82y27=6c6666
x83y27=7f7d7e
x84y27=929292
x85y27=969897
x86y27=989898
x87y27=888687
x88y27=7c7877
x89y27=626061
x90y27=666261
x91y27=665e5c
x92y27=48403e
x93y27=4e4946
x94y27=55504d
x95y27=554d4b
x96y27=6c6764
x97y27=4d4946
x98y27=3d3936
x99y27=635e5b
x100y27=4b4545
x101y27=5e5858
x102y27=6e6868
x103y27=6d6968
x104y27=736f6c
x105y27=635e5b
x106y27=534b48
x107y27=332a23
x108y27=554840
x109y27=87736c
x110y27=866d68
x111y27=8b6e66
x112y27=674a42
x113y27=4f322c
x114y27=4b3029
x115y27=846c62
x116y27=9c887f
x117y27=6e5f58
x118y27=3c312b
x119y27=211c18
x120y27=272622
x121y27=3c3835
x122y27=575350
x123y27=787773
x124y27=81807c
x125y27=979692
x126y27=888783
x127y27=777370
x128y27=8d8c88
x129y27=80807e
x130y27=7e807b
x131y27=92958e
x132y27=8b8e87
x133y27=7e7f7a
x134y27=91908c
x135y27=504c49
x136y27=302c29
x137y27=2d2926
x138y27=2e2925
x139y27=443935
x140y27=49302c
x141y27=835353
x142y27=a86366
x143y27=c66f77
x144y27=d46c77
x145y27=ed7082
x146y27=f67186
x147y27=ff7c94
x148y27=ff7e96
x149y27=ff7890
x150y27=fe768e
x151y27=f96f86
x152y27=f86e85
x153y27=f66e84
x154y27=f76f85
x155y27=f86e85
x156y27=f66c83
x157y27=f4697e
x158y27=f76c81
x159y27=f36a7e
x160y27=f0687c
x161y27=ec6377
x162y27=de5567
x163y27=c74051
x164y27=df5668
x165y27=f56a7d
x166y27=ef6479
x167y27=f2647a
x168y27=f0657a
x169y27=e96072
x170y27=e65f70
x171y27=e45d6e
x172y27=e0596a
x173y27=da5266
x174y27=d85064
x175y27=d55065
x176y27=d54f67
x1y28=fa718b
x2y28=f67089
x3y28=f8728d
x4y28=f6708b
x5y28=fa748d
x6y28=f8728b
x7y28=fa718d
x8y28=fb728c
x9y28=fc728c
x10y28=fc728c
x11y28=fb728c
x12y28=f86f89
x13y28=fb728c
x14y28=f36b83
x15y28=ef657f
x16y28=f0667f
x17y28=f66e86
x18y28=f46e86
x19y28=f76d87
x20y28=f86f89
x21y28=f8728b
x22y28=f06e86
x23y28=f2748a
x24y28=eb7689
x25y28=e67b8b
x26y28=da828e
x27y28=cc8990
x28y28=c69599
x29y28=b69397
x30y28=9c898b
x31y28=878382
x32y28=838584
x33y28=868684
x34y28=777672
x35y28=625e5d
x36y28=655f5f
x37y28=554c4d
x38y28=594f50
x39y28=685e5f
x40y28=695d5d
x41y28=564b49
x42y28=5a4f4b
x43y28=615652
x44y28=5c514d
x45y28=655852
x46y28=584b45
x47y28=524741
x48y28=413630
x49y28=483f38
x50y28=453c35
x51y28=453c35
x52y28=393029
x53y28=392e28
x54y28=362b25
x55y28=302521
x56y28=2e231f
x57y28=2a231d
x58y28=2b2620
x59y28=2b2620
x60y28=2b2620
x61y28=312823
x62y28=2f2621
x63y28=2d241d
x64y28=2a211c
x65y28=261c1a
x66y28=251d1a
x67y28=201b15
x68y28=232019
x69y28=29211e
x70y28=342a28
x71y28=3d342f
x72y28=423934
x73y28=403531
x74y28=413735
x75y28=443f3b
x76y28=413c38
x77y28=48403d
x78y28=433c36
x79y28=3d3532
x80y28=3d3533
x81y28=423837
x82y28=564d4e
x83y28=726c6e
x84y28=7a7879
x85y28=817f82
x86y28=807e7f
x87y28=7d7978
x88y28=6a6665
x89y28=696768
x90y28=494544
x91y28=554d4b
x92y28=453b39
x93y28=423a37
x94y28=4c453f
x95y28=4d4542
x96y28=504845
x97y28=48433f
x98y28=55504c
x99y28=4a423f
x100y28=3c3432
x101y28=625c5c
x102y28=6b6768
x103y28=6c6b69
x104y28=696564
x105y28=6a6464
x106y28=675f5c
x107y28=3c332c
x108y28=433930
x109y28=998680
x110y28=af9892
x111y28=886d66
x112y28=553a33
x113y28=47302a
x114y28=47332c
x115y28=7b675e
x116y28=857369
x117y28=584b43
x118y28=39302b
x119y28=1e1b16
x120y28=1b1a16
x121y28=22211d
x122y28=34332f
x123y28=4c4845
x124y28=6b6a65
x125y28=82817c
x126y28=6e6d69
x127y28=7d7c78
x128y28=868583
x129y28=858583
x130y28=80827d
x131y28=878a83
x132y28=868982
x133y28=7d7e79
x134y28=84837f
x135y28=6c6865
x136y28=383330
x137y28=221f1a
x138y28=231c16
x139y28=3e2f2a
x140y28=6c4d4a
x141y28=996162
x142y28=b26369
x143y28=c56570
x144y28=e37381
x145y28=fc7f91
x146y28=ff8196
x147y28=ff7a92
x148y28=fd758d
x149y28=fb718a
x150y28=f96f86
x151y28=f86d84
x152y28=fa7087
x153y28=f56d81
x154y28=f36b7f
x155y28=f46a81
x156y28=f76e82
x157y28=f2677c
x158y28=f2677a
x159y28=f4697c
x160y28=e96070
x161y28=da5163
x162y28=ce4758
x163y28=f46d7e
x164y28=f86f81
x165y28=f2677c
x166y28=ef6479
x167y28=eb6075
x168y28=ed6277
x169y28=e85f71
x170y28=e25b6c
x171y28=df5869
x172y28=db5465
x173y28=d95165
x174y28=d85066
x175y28=d95167
x176y28=d34b61
x1y29=f96e8b
x2y29=f86f8b
x3y29=f8728b
x4y29=f57189
x5y29=f6718c
x6y29=f6708b
x7y29=f76e88
x8y29=f66c86
x9y29=f66a85
x10y29=f76b86
x11y29=f56984
x12y29=f16580
x13y29=ed637d
x14y29=f16882
x15y29=fc748c
x16y29=f87088
x17y29=f8728b
x18y29=f7718a
x19y29=f76d87
x20y29=f97189
x21y29=f8748b
x22y29=f5778d
x23y29=f0798d
x24y29=e37d8b
x25y29=d38690
x26y29=b68286
x27y29=96787a
x28y29=918182
x29y29=94888a
x30y29=969090
x31y29=7f7e7a
x32y29=6c6b67
x33y29=6e6d6b
x34y29=67625f
x35y29=635957
x36y29=5c514f
x37y29=5a4f4d
x38y29=594b48
x39y29=564845
x40y29=5a4b48
x41y29=62534c
x42y29=5a4b44
x43y29=62534c
x44y29=685952
x45y29=60514c
x46y29=5a4b48
x47y29=4c3e3b
x48y29=4a3d37
x49y29=443933
x50y29=4b4239
x51y29=3c312b
x52y29=3d342d
x53y29=403732
x54y29=413833
x55y29=2d241f
x56y29=2e2520
x57y29=2c231e
x58y29=2b241e
x59y29=29251c
x60y29=2e2a21
x61y29=2f2621
x62y29=2e2520
x63y29=2f2420
x64y29=2a211c
x65y29=271d1b
x66y29=221a17
x67y29=231c16
x68y29=261f19
x69y29=2b2320
x70y29=322826
x71y29=3a312c
x72y29=3b342c
x73y29=433a33
x74y29=3e3731
x75y29=403933
x76y29=38312b
x77y29=39322a
x78y29=3b322b
x79y29=3b322d
x80y29=3e3530
x81y29=3e3232
x82y29=443a39
x83y29=5d5455
x84y29=625c5c
x85y29=6f696b
x86y29=696365
x87y29=554c4d
x88y29=5c5354
x89y29=655f61
x90y29=5e5858
x91y29=403635
x92y29=453a38
x93y29=443b36
x94y29=3e372f
x95y29=3e3731
x96y29=403931
x97y29=413831
x98y29=362d26
x99y29=3a2f2b
x100y29=463c3a
x101y29=494544
x102y29=686667
x103y29=737373
x104y29=757472
x105y29=8f8687
x106y29=716766
x107y29=382d29
x108y29=3b2d2a
x109y29=675956
x110y29=968782
x111y29=68554f
x112y29=46322b
x113y29=402d27
x114y29=43322b
x115y29=85726b
x116y29=6f5e56
x117y29=584b45
x118y29=49403b
x119y29=3b3632
x120y29=1c1b17
x121y29=1c1b16
x122y29=20211b
x123y29=2c2b26
x124y29=45453d
x125y29=5e5e56
x126y29=57574f
x127y29=6b6c66
x128y29=8d8e89
x129y29=81827d
x130y29=8c8d88
x131y29=8e908d
x132y29=6f716e
x133y29=7c7e7b
x134y29=727270
x135y29=5e5a59
x136y29=4a4542
x137y29=2a2521
x138y29=201710
x139y29=38271f
x140y29=66433d
x141y29=99585c
x142y29=c36c75
x143y29=d66d7b
x144y29=e57283
x145y29=fa7f93
x146y29=f9788e
x147y29=fc728b
x148y29=fc708a
x149y29=fc6e86
x150y29=fe7088
x151y29=f76c83
x152y29=f66d81
x153y29=f1697d
x154y29=f0687c
x155y29=f0677b
x156y29=f0677b
x157y29=ef6479
x158y29=ea5f72
x159y29=e45a6a
x160y29=d04655
x161y29=d85160
x162y29=f4707e
x163y29=f0697a
x164y29=ec6375
x165y29=ed6478
x166y29=ea6175
x167y29=e85f71
x168y29=eb6274
x169y29=df5668
x170y29=e05769
x171y29=db5266
x172y29=d64d61
x173y29=d34b61
x174y29=d54d63
x175y29=d74d64
x176y29=d34a5e
x1y30=f86c89
x2y30=f76c89
x3y30=f9708a
x4y30=f8728b
x5y30=f6708b
x6y30=f26c87
x7y30=f36a84
x8y30=f46a84
x9y30=f26683
x10y30=f0647f
x11y30=ee627d
x12y30=f46a83
x13y30=f76e88
x14y30=fc768f
x15y30=fa748c
x16y30=fc7890
x17y30=fd7991
x18y30=f7718a
x19y30=f56f88
x20y30=f47087
x21y30=f07287
x22y30=eb778a
x23y30=e07e8d
x24y30=c67983
x25y30=b07e81
x26y30=a28685
x27y30=9a908f
x28y30=91908e
x29y30=7d7b7c
x30y30=72716f
x31y30=7f7b78
x32y30=716d6a
x33y30=635e5b
x34y30=574f4d
x35y30=4e4341
x36y30=4e403d
x37y30=4e413b
x38y30=5f524c
x39y30=5d4e49
x40y30=53423b
x41y30=54433b
x42y30=594840
x43y30=594840
x44y30=594840
x45y30=5e4f48
x46y30=61524d
x47y30=5c4d48
x48y30=4b3e38
x49y30=413630
x50y30=3c332a
x51y30=382d27
x52y30=362d26
x53y30=312a24
x54y30=39322c
x55y30=342d27
x56y30=2a231d
x57y30=2e2520
x58y30=2d2620
x59y30=2c251d
x60y30=2e271f
x61y30=2b241e
x62y30=2d241f
x63y30=2b221d
x64y30=29201b
x65y30=251d1a
x66y30=28211b
x67y30=27201a
x68y30=27201a
x69y30=2b2320
x70y30=342c29
x71y30=403933
x72y30=39322a
x73y30=443d35
x74y30=403933
x75y30=3a332d
x76y30=342d27
x77y30=322b23
x78y30=393027
x79y30=322922
x80y30=362b25
x81y30=3c312f
x82y30=453a38
x83y30=554b4a
x84y30=615957
x85y30=5c5354
x86y30=514849
x87y30=463c3b
x88y30=4e4443
x89y30=4e4546
x90y30=443b3c
x91y30=423735
x92y30=403531
x93y30=423731
x94y30=433a33
x95y30=342b24
x96y30=3d342d
x97y30=3c3229
x98y30=362c23
x99y30=3c312b
x100y30=423934
x101y30=6c6867
x102y30=707070
x103y30=8d8d8d
x104y30=92918f
x105y30=7e7878
x106y30=554b4a
x107y30=3c2e2b
x108y30=382a27
x109y30=332824
x110y30=332824
x111y30=332620
x112y30=382922
x113y30=342721
x114y30=2d201a
x115y30=4c3b34
x116y30=62534c
x117y30=655754
x118y30=7a706e
x119y30=66615d
x120y30=2e2b26
x121y30=191813
x122y30=181913
x123y30=1a1b15
x124y30=2a2a22
x125y30=3e3b34
x126y30=4a4a42
x127y30=53544e
x128y30=777873
x129y30=7c7d78
x130y30=8e8e8c
x131y30=7d7f7c
x132y30=757774
x133y30=737572
x134y30=70706e
x135y30=5d5958
x136y30=46413e
x137y30=3d3532
x138y30=231812
x139y30=2c1b13
x140y30=58322f
x141y30=a26064
x142y30=c86c77
x143y30=dd7180
x144y30=e87184
x145y30=eb7084
x146y30=f37288
x147y30=f66e86
x148y30=f76b85
x149y30=f46980
x150y30=f56a81
x151y30=f36980
x152y30=f0677b
x153y30=ec6478
x154y30=ee667a
x155y30=ea6173
x156y30=f06779
x157y30=ef6678
x158y30=de5464
x159y30=cb4151
x160y30=cb4351
x161y30=ee6776
x162y30=ed6675
x163y30=ee6575
x164y30=ec6375
x165y30=e75e70
x166y30=e85f71
x167y30=e86172
x168y30=e15a6b
x169y30=da5364
x170y30=d64f60
x171y30=cc4458
x172y30=cf475b
x173y30=d14c61
x174y30=d14c61
x175y30=cc4458
x176y30=cc4458
x1y31=f26381
x2y31=e85c79
x3y31=ec617e
x4y31=f76c89
x5y31=f26985
x6y31=f06783
x7y31=f56a87
x8y31=f66b88
x9y31=f46b85
x10y31=f66d87
x11y31=f7718a
x12y31=f8748c
x13y31=ff7c94
x14y31=ff7e96
x15y31=ff7d95
x16y31=f8768e
x17y31=f37189
x18y31=f37189
x19y31=f16f87
x20y31=f17389
x21y31=ee7d8f
x22y31=d17381
x23y31=bb7a80
x24y31=ab8183
x25y31=9a8584
x26y31=857b79
x27y31=87827f
x28y31=888483
x29y31=76726f
x30y31=6d6865
x31y31=5d5553
x32y31=4d4543
x33y31=493f3e
x34y31=493f3d
x35y31=473c38
x36y31=4a3c39
x37y31=4c3f39
x38y31=52453d
x39y31=52433c
x40y31=54453e
x41y31=54433c
x42y31=54433b
x43y31=523f38
x44y31=524137
x45y31=56483f
x46y31=574940
x47y31=54453e
x48y31=4a3d37
x49y31=372c26
x50y31=2b221b
x51y31=2c231e
x52y31=2d241f
x53y31=29211e
x54y31=2e2623
x55y31=2b2622
x56y31=312c28
x57y31=302923
x58y31=2e2721
x59y31=2d2620
x60y31=2c251f
x61y31=2e2721
x62y31=2b241e
x63y31=261e1b
x64y31=28201d
x65y31=29221c
x66y31=231e18
x67y31=251e18
x68y31=28211b
x69y31=2c2421
x70y31=342c29
x71y31=3a332d
x72y31=332a25
x73y31=322924
x74y31=372d2b
x75y31=332b28
x76y31=2f2822
x77y31=302921
x78y31=312a22
x79y31=312620
x80y31=362b25
x81y31=3c312b
x82y31=4b403a
x83y31=4e4540
x84y31=413936
x85y31=403835
x86y31=443a38
x87y31=3d322e
x88y31=463b37
x89y31=594f4d
x90y31=4a403e
x91y31=433a35
x92y31=40352f
x93y31=433832
x94y31=3b3128
x95y31=382b25
x96y31=41342e
x97y31=4a4037
x98y31=352b22
x99y31=30251f
x100y31=463f39
x101y31=615b5b
x102y31=727071
x103y31=8b8d8a
x104y31=898987
x105y31=7e7a77
x106y31=564e4b
x107y31=493c36
x108y31=3d3028
x109y31=382d29
x110y31=342b26
x111y31=2d261e
x112y31=272018
x113y31=241b16
x114y31=2a211a
x115y31=352822
x116y31=382b25
x117y31=5b504c
x118y31=615755
x119y31=706b67
x120y31=535049
x121y31=202018
x122y31=13140e
x123y31=1c1b16
x124y31=25241f
x125y31=302d28
x126y31=3a3732
x127y31=474642
x128y31=595854
x129y31=6e6e6c
x130y31=898987
x131y31=7b7b79
x132y31=797b76
x133y31=636560
x134y31=51534e
x135y31=5f5b5a
x136y31=4d4747
x137y31=393431
x138y31=271d1b
x139y31=261712
x140y31=4b2927
x141y31=7d3a41
x142y31=b65a65
x143y31=d66a79
x144y31=e97083
x145y31=e86a7f
x146y31=ee6f84
x147y31=ed697e
x148y31=ee697e
x149y31=f26a80
x150y31=ee667c
x151y31=ee667c
x152y31=eb6379
x153y31=ea6175
x154y31=ea6173
x155y31=ec6574
x156y31=e35c6a
x157y31=da5361
x158y31=c13947
x159y31=d34a5a
x160y31=f06777
x161y31=f16679
x162y31=ee6474
x163y31=eb6171
x164y31=e75d6d
x165y31=ea6070
x166y31=e45b6b
x167y31=e35c6d
x168y31=d65162
x169y31=d04b5e
x170y31=c84557
x171y31=c54456
x172y31=c44355
x173y31=c84759
x174y31=be3d4f
x175y31=bb3a4c
x176y31=c14052
x1y32=d84967
x2y32=dd516e
x3y32=e55976
x4y32=ee6380
x5y32=f26985
x6y32=f26c87
x7y32=f56c88
x8y32=f86f8b
x9y32=f9738c
x10y32=fd7790
x11y32=ff7f97
x12y32=ff7e96
x13y32=f7758d
x14y32=f5738b
x15y32=f27088
x16y32=f27088
x17y32=f3738a
x18y32=f3788d
x19y32=ea7387
x20y32=dd7181
x21y32=ca707c
x22y32=b8757c
x23y32=ad8586
x24y32=988483
x25y32=89817e
x26y32=757470
x27y32=656160
x28y32=615c59
x29y32=59514e
x30y32=564e4b
x31y32=4d4341
x32y32=423836
x33y32=453a38
x34y32=3f3430
x35y32=3b302c
x36y32=3e332d
x37y32=443933
x38y32=43362e
x39y32=41342c
x40y32=42332c
x41y32=473831
x42y32=4c3b34
x43y32=4d3c34
x44y32=4b3a30
x45y32=524439
x46y32=5b4d44
x47y32=50413a
x48y32=362921
x49y32=2a1f19
x50y32=2b221d
x51y32=281f1a
x52y32=27201a
x53y32=271f1c
x54y32=2a2521
x55y32=292420
x56y32=292420
x57y32=2c2721
x58y32=342d27
x59y32=39322c
x60y32=312a24
x61y32=2d2620
x62y32=2b241e
x63y32=2c2421
x64y32=28201d
x65y32=28231d
x66y32=27221c
x67y32=28211b
x68y32=2b241e
x69y32=2a251f
x70y32=2d2522
x71y32=514843
x72y32=534a45
x73y32=392f2d
x74y32=362c2a
x75y32=322a27
x76y32=2e2721
x77y32=2f2820
x78y32=322b23
x79y32=342923
x80y32=332822
x81y32=3f352c
x82y32=3f362f
x83y32=433a33
x84y32=49403b
x85y32=3d342f
x86y32=372c26
x87y32=3b2e28
x88y32=4c3f39
x89y32=4e433f
x90y32=3a312c
x91y32=352a24
x92y32=3d322c
x93y32=3d332a
x94y32=41342c
x95y32=3d302a
x96y32=382b25
x97y32=3b3128
x98y32=32281f
x99y32=30261d
x100y32=3a312c
x101y32=585350
x102y32=797876
x103y32=8a8c89
x104y32=8e908d
x105y32=7c7b77
x106y32=605953
x107y32=53463e
x108y32=42352d
x109y32=3a2d27
x110y32=332a23
x111y32=2b271e
x112y32=26211b
x113y32=1e1913
x114y32=29221c
x115y32=2f241e
x116y32=382d27
x117y32=3d322e
x118y32=716863
x119y32=6a6561
x120y32=706d68
x121y32=22211c
x122y32=1a1914
x123y32=1a1915
x124y32=211d1a
x125y32=2b2724
x126y32=3d3936
x127y32=474340
x128y32=56524f
x129y32=6f6e6c
x130y32=7a7977
x131y32=81827d
x132y32=7e7f7a
x133y32=5c5e59
x134y32=41423d
x135y32=4e4a49
x136y32=4a4542
x137y32=36312e
x138y32=281e1c
x139y32=2b1915
x140y32=522b2c
x141y32=7e373f
x142y32=a84b56
x143y32=d06171
x144y32=e0677a
x145y32=e5677c
x146y32=e5647a
x147y32=e66579
x148y32=e56176
x149y32=e76378
x150y32=e66176
x151y32=e86076
x152y32=e86076
x153y32=e96175
x154y32=e55e6d
x155y32=db5764
x156y32=cf4b56
x157y32=c03a45
x158y32=cd4654
x159y32=ec6373
x160y32=eb6274
x161y32=ee6174
x162y32=ed6071
x163y32=eb6171
x164y32=ea606f
x165y32=e75d6c
x166y32=e35a6a
x167y32=db5465
x168y32=cc4758
x169y32=c64557
x170y32=c04152
x171y32=c24354
x172y32=bc3f4f
x173y32=b93a4b
x174y32=b53647
x175y32=b53647
x176y32=b73849
x1y33=f46885
x2y33=f36885
x3y33=f76c89
x4y33=f46e89
x5y33=f16f89
x6y33=f4748d
x7y33=fb7691
x8y33=ff7e99
x9y33=ff7e97
x10y33=fc768f
x11y33=f8728a
x12y33=f36f86
x13y33=f57188
x14y33=f5738b
x15y33=f4728a
x16y33=f2728b
x17y33=f17389
x18y33=e46f82
x19y33=d16879
x20y33=c06d77
x21y33=b88083
x22y33=aa8886
x23y33=9e8b87
x24y33=928886
x25y33=7f7a77
x26y33=706c6b
x27y33=615c59
x28y33=4e4644
x29y33=453b39
x30y33=453c37
x31y33=403732
x32y33=3d342f
x33y33=3d342f
x34y33=403730
x35y33=352c25
x36y33=393029
x37y33=342b24
x38y33=342923
x39y33=32281f
x40y33=31241c
x41y33=372a22
x42y33=3d2e27
x43y33=3b2d24
x44y33=43352c
x45y33=4d3f36
x46y33=4f4039
x47y33=4d3e37
x48y33=2d201a
x49y33=2a211c
x50y33=271f1c
x51y33=261e1b
x52y33=261e1b
x53y33=251e18
x54y33=241f19
x55y33=27221c
x56y33=28231d
x57y33=25201a
x58y33=2b2620
x59y33=2e2923
x60y33=302923
x61y33=2a231d
x62y33=28211b
x63y33=261f19
x64y33=29221c
x65y33=28231f
x66y33=241f19
x67y33=27201a
x68y33=27201a
x69y33=2f2822
x70y33=2e2721
x71y33=322924
x72y33=3a312c
x73y33=403732
x74y33=433a35
x75y33=352c27
x76y33=2c251f
x77y33=2c251d
x78y33=2d261e
x79y33=2f261f
x80y33=2e251e
x81y33=342b24
x82y33=312821
x83y33=2f261f
x84y33=3c312b
x85y33=382d27
x86y33=382e25
x87y33=392c24
x88y33=3b2e26
x89y33=352822
x90y33=3e332d
x91y33=3a2d25
x92y33=30231b
x93y33=382b23
x94y33=3c2f27
x95y33=51443e
x96y33=4b403a
x97y33=3c3229
x98y33=32281f
x99y33=372d24
x100y33=31271e
x101y33=443d37
x102y33=74706d
x103y33=868684
x104y33=81817f
x105y33=7f7b7a
x106y33=605855
x107y33=4b3e36
x108y33=41342b
x109y33=392c24
x110y33=30271e
x111y33=2d2620
x112y33=26211d
x113y33=1f1a16
x114y33=29221c
x115y33=3e3129
x116y33=4d3e37
x117y33=493f36
x118y33=584f4a
x119y33=615c58
x120y33=65615e
x121y33=393532
x122y33=24201d
x123y33=211d1a
x124y33=292621
x125y33=302b27
x126y33=3e3935
x127y33=494440
x128y33=4c4743
x129y33=5e5b56
x130y33=7b7774
x131y33=85847f
x132y33=7e7d78
x133y33=6d6e69
x134y33=403f3b
x135y33=474340
x136y33=342f2c
x137y33=332e2a
x138y33=261b17
x139y33=311c19
x140y33=5a2c2e
x141y33=a2525d
x142y33=c55f6d
x143y33=ce5e6e
x144y33=d55c6d
x145y33=db5e70
x146y33=df5e72
x147y33=de5a6f
x148y33=de5a6f
x149y33=e56176
x150y33=e15d72
x151y33=df5a6d
x152y33=dd5869
x153y33=d65361
x154y33=ca4854
x155y33=b73841
x156y33=a72831
x157y33=ca4651
x158y33=e9616f
x159y33=ea6070
x160y33=ec5f72
x161y33=eb5e6f
x162y33=e85b6c
x163y33=eb6171
x164y33=e65c6c
x165y33=e55c6c
x166y33=db5465
x167y33=d14e5e
x168y33=c64557
x169y33=c04152
x170y33=bb3e4e
x171y33=b93c4c
x172y33=b43a49
x173y33=af3240
x174y33=af3240
x175y33=ac2f3d
x176y33=ab2e3c
x1y34=f5738d
x2y34=f7758f
x3y34=fa7892
x4y34=ff7f99
x5y34=ff869e
x6y34=ff869e
x7y34=ff7e98
x8y34=f6718c
x9y34=f26c85
x10y34=f06a83
x11y34=f46e87
x12y34=f26e86
x13y34=f26e86
x14y34=f07087
x15y34=f17188
x16y34=e86c84
x17y34=e06b7e
x18y34=d26b7c
x19y34=ca7a85
x20y34=c38a90
x21y34=a98b89
x22y34=9a8b86
x23y34=877d7b
x24y34=75706d
x25y34=67625f
x26y34=57524f
x27y34=443f3c
x28y34=3a3531
x29y34=3a332d
x30y34=39302b
x31y34=362d26
x32y34=332a23
x33y34=322922
x34y34=342d25
x35y34=342b24
x36y34=2f2820
x37y34=2d261e
x38y34=2d261e
x39y34=2c231c
x40y34=2c231a
x41y34=31271e
x42y34=342a21
x43y34=352b22
x44y34=3c3229
x45y34=40332b
x46y34=43362e
x47y34=41342e
x48y34=2c211b
x49y34=271e19
x50y34=261e1b
x51y34=271f1c
x52y34=241c19
x53y34=211c16
x54y34=241f19
x55y34=25201a
x56y34=231e18
x57y34=241f19
x58y34=211c16
x59y34=28231d
x60y34=2b2620
x61y34=28211b
x62y34=28211b
x63y34=28211b
x64y34=231e18
x65y34=241f1b
x66y34=241f1b
x67y34=241f19
x68y34=261f19
x69y34=2c251f
x70y34=332c26
x71y34=342b26
x72y34=3f3631
x73y34=413833
x74y34=3f3631
x75y34=342b26
x76y34=342b26
x77y34=2c231c
x78y34=2d261e
x79y34=2c251d
x80y34=302720
x81y34=342b24
x82y34=423731
x83y34=413630
x84y34=3a2f29
x85y34=3c3229
x86y34=362c23
x87y34=362921
x88y34=362921
x89y34=33261e
x90y34=352820
x91y34=2c1f17
x92y34=32251d
x93y34=32251d
x94y34=3d332a
x95y34=312620
x96y34=342923
x97y34=322920
x98y34=30271e
x99y34=2d231a
x100y34=2c2219
x101y34=332c24
x102y34=55524d
x103y34=888886
x104y34=747474
x105y34=615d5c
x106y34=514947
x107y34=4e433d
x108y34=40332a
x109y34=352b21
x110y34=31281f
x111y34=2d2620
x112y34=25201c
x113y34=201b17
x114y34=221b15
x115y34=574a42
x116y34=73655c
x117y34=6d6058
x118y34=736a63
x119y34=76716d
x120y34=5f5b58
x121y34=4b4643
x122y34=3b3734
x123y34=35302c
x124y34=342f2b
x125y34=3d3532
x126y34=4e4643
x127y34=5d5852
x128y34=57524c
x129y34=595450
x130y34=716c68
x131y34=7c7974
x132y34=696661
x133y34=65615e
x134y34=484441
x135y34=3c3734
x136y34=2f2a26
x137y34=342f2b
x138y34=2a211c
x139y34=36211e
x140y34=75494a
x141y34=b1646e
x142y34=c6616f
x143y34=c85969
x144y34=c85262
x145y34=cc4d60
x146y34=cd4c60
x147y34=d65267
x148y34=d65267
x149y34=d35062
x150y34=d04d5f
x151y34=ca4757
x152y34=c2404c
x153y34=b93741
x154y34=ac2d36
x155y34=9f2029
x156y34=d14f59
x157y34=e96270
x158y34=ed6573
x159y34=ed6071
x160y34=e95c6d
x161y34=ed6071
x162y34=ee6473
x163y34=ec6272
x164y34=e35a6a
x165y34=e0596a
x166y34=d14c5d
x167y34=c44153
x168y34=c14052
x169y34=bd3e4f
x170y34=b33646
x171y34=af3242
x172y34=ac3241
x173y34=a82e3b
x174y34=a82b39
x175y34=aa2d3b
x176y34=a92c3a
x1y35=fe8fa2
x2y35=ff96aa
x3y35=ff95ab
x4y35=ff8aa2
x5y35=f47890
x6y35=f4748d
x7y35=ec6a82
x8y35=ee6a82
x9y35=ef6984
x10y35=f36d88
x11y35=f56f8a
x12y35=f16c87
x13y35=f07089
x14y35=ea6f84
x15y35=e46d81
x16y35=e07182
x17y35=dd7888
x18y35=d0838d
x19y35=b6888a
x20y35=aa908f
x21y35=978c8a
x22y35=857d7b
x23y35=726867
x24y35=5c5251
x25y35=524a48
x26y35=393430
x27y35=332e2a
x28y35=2f2c25
x29y35=342f29
x30y35=2d2822
x31y35=2f2621
x32y35=2c231e
x33y35=29221c
x34y35=241f19
x35y35=28211b
x36y35=26211b
x37y35=28231d
x38y35=2a251f
x39y35=28211b
x40y35=29221a
x41y35=2e271f
x42y35=2d261e
x43y35=302720
x44y35=322922
x45y35=332a23
x46y35=362d26
x47y35=342d27
x48y35=28211b
x49y35=261e1b
x50y35=211c18
x51y35=201b17
x52y35=221d19
x53y35=201b15
x54y35=1f1a14
x55y35=241f19
x56y35=26211b
x57y35=26211b
x58y35=211c16
x59y35=241f19
x60y35=26211b
x61y35=27221c
x62y35=26211b
x63y35=27221c
x64y35=25201a
x65y35=241f19
x66y35=24211a
x67y35=26231c
x68y35=25201a
x69y35=28231d
x70y35=2c2721
x71y35=362f29
x72y35=423b35
x73y35=3f3631
x74y35=382f2a
x75y35=342925
x76y35=312823
x77y35=2f261f
x78y35=302720
x79y35=322922
x80y35=3c332c
x81y35=4b403a
x82y35=453a34
x83y35=3f352c
x84y35=3e342b
x85y35=4d4038
x86y35=382b23
x87y35=2f251c
x88y35=332920
x89y35=30261d
x90y35=342a21
x91y35=32251d
x92y35=2b1e16
x93y35=352b22
x94y35=493f36
x95y35=5a4f49
x96y35=322721
x97y35=2c231c
x98y35=382f26
x99y35=433930
x100y35=251c13
x101y35=2d261e
x102y35=413e39
x103y35=777775
x104y35=777777
x105y35=736f6e
x106y35=504846
x107y35=433832
x108y35=3f352c
x109y35=372d24
x110y35=2f261f
x111y35=2b241e
x112y35=25201c
x113y35=211c19
x114y35=1e1613
x115y35=3c312b
x116y35=74675f
x117y35=6a6056
x118y35=797067
x119y35=6d6660
x120y35=635e5a
x121y35=534c46
x122y35=59544e
x123y35=605953
x124y35=4e4741
x125y35=49423c
x126y35=544d47
x127y35=6e6965
x128y35=5f5a56
x129y35=4d4844
x130y35=504b47
x131y35=58534d
x132y35=605b55
x133y35=6d6562
x134y35=463e3b
x135y35=302b27
x136y35=2c2924
x137y35=25221d
x138y35=221b15
x139y35=2f201b
x140y35=684645
x141y35=97595c
x142y35=bf6871
x143y35=d26876
x144y35=d96373
x145y35=de5f72
x146y35=df5e72
x147y35=de5d71
x148y35=db5a6c
x149y35=da5a69
x150y35=d35360
x151y35=d2505c
x152y35=c84650
x153y35=bc3941
x154y35=bb3742
x155y35=e15a68
x156y35=e9616f
x157y35=eb6272
x158y35=ea6070
x159y35=ec6272
x160y35=eb6171
x161y35=eb6171
x162y35=eb6272
x163y35=e65d6f
x164y35=dc5566
x165y35=cb4657
x166y35=bc3949
x167y35=b83749
x168y35=b63547
x169y35=b23344
x170y35=ae3141
x171y35=ac2f3f
x172y35=ab2e3e
x173y35=ab2e3c
x174y35=ac2e3c
x175y35=af313f
x176y35=ac2e3c
x1y36=ff9eb1
x2y36=fa8b9e
x3y36=f17b91
x4y36=e96f86
x5y36=e86a82
x6y36=e86881
x7y36=ea6580
x8y36=e8647c
x9y36=e7627d
x10y36=e9647f
x11y36=e6617e
x12y36=df5e7a
x13y36=db617a
x14y36=e26e83
x15y36=e4798b
x16y36=db7d8b
x17y36=cf828a
x18y36=b58185
x19y36=98807e
x20y36=877f7c
x21y36=858180
x22y36=7d7978
x23y36=696061
x24y36=594f4e
x25y36=453d3a
x26y36=3a352f
x27y36=2f2a24
x28y36=2d2a23
x29y36=2e2b24
x30y36=2c2721
x31y36=2c251f
x32y36=28211b
x33y36=2c251f
x34y36=241f19
x35y36=27221c
x36y36=37322c
x37y36=26231c
x38y36=28251e
x39y36=29241e
x40y36=2a251f
x41y36=2a251f
x42y36=262219
x43y36=29221a
x44y36=2b241c
x45y36=2e2721
x46y36=2e2923
x47y36=27221c
x48y36=1d1812
x49y36=1d1814
x50y36=201b17
x51y36=201b17
x52y36=221d19
x53y36=1f1a14
x54y36=1e1913
x55y36=231e18
x56y36=231e18
x57y36=25201a
x58y36=231e18
x59y36=231e18
x60y36=221d17
x61y36=25201a
x62y36=231e18
x63y36=231e18
x64y36=26211b
x65y36=25221b
x66y36=221f18
x67y36=232019
x68y36=24211a
x69y36=2a251f
x70y36=2b2620
x71y36=362f29
x72y36=362f29
x73y36=3b322d
x74y36=3c332e
x75y36=392e2a
x76y36=362b27
x77y36=362d26
x78y36=302720
x79y36=3c332c
x80y36=423932
x81y36=40332d
x82y36=42352f
x83y36=3d3028
x84y36=362c23
x85y36=43362e
x86y36=3a3027
x87y36=332920
x88y36=2d231a
x89y36=291f16
x90y36=281e15
x91y36=2e241b
x92y36=271d14
x93y36=483f36
x94y36=41382f
x95y36=261d16
x96y36=271e17
x97y36=332a23
x98y36=281f18
x99y36=30251f
x100y36=2a211a
x101y36=221b15
x102y36=292621
x103y36=4b4b49
x104y36=575755
x105y36=4c4847
x106y36=534b49
x107y36=3f3631
x108y36=352c23
x109y36=30271e
x110y36=2e271f
x111y36=2a231d
x112y36=27221e
x113y36=221d1a
x114y36=211916
x115y36=291e18
x116y36=4b4138
x117y36=766c62
x118y36=8c8278
x119y36=847b74
x120y36=706760
x121y36=756c63
x122y36=70675e
x123y36=5e554c
x124y36=5e554e
x125y36=534c46
x126y36=58514b
x127y36=57524e
x128y36=5a5551
x129y36=45403c
x130y36=4a4541
x131y36=4b443e
x132y36=5b544e
x133y36=473f3c
x134y36=332b28
x135y36=2a2521
x136y36=2b2823
x137y36=211c18
x138y36=1e1913
x139y36=251c17
x140y36=4d3531
x141y36=805050
x142y36=b86d72
x143y36=d06a75
x144y36=db6575
x145y36=e06375
x146y36=e06174
x147y36=e26374
x148y36=dd5e6f
x149y36=d75764
x150y36=cb4c57
x151y36=c6444e
x152y36=bb3840
x153y36=c7414a
x154y36=ea626e
x155y36=eb6170
x156y36=ee6474
x157y36=ed6275
x158y36=ed6275
x159y36=ea6070
x160y36=ee6474
x161y36=ed6474
x162y36=e96273
x163y36=df5869
x164y36=ca4556
x165y36=bd3a4a
x166y36=b73444
x167y36=af2e40
x168y36=ac2b3d
x169y36=ad2c3e
x170y36=af3041
x171y36=ac2d3e
x172y36=ad2e3f
x173y36=b23442
x174y36=b13341
x175y36=b53544
x176y36=b73947
x1y37=f87d92
x2y37=ea6c84
x3y37=e96b83
x4y37=de5d79
x5y37=d4526e
x6y37=d34e69
x7y37=d14c67
x8y37=d04b66
x9y37=d24d68
x10y37=d14f69
x11y37=cb4c67
x12y37=ce566f
x13y37=dd6b82
x14y37=df788b
x15y37=d77c8b
x16y37=cb828b
x17y37=bc8b8e
x18y37=a28683
x19y37=897e7a
x20y37=817d7a
x21y37=6b6567
x22y37=595355
x23y37=5a5152
x24y37=4c4442
x25y37=423d39
x26y37=35302a
x27y37=36312b
x28y37=312d24
x29y37=312c26
x30y37=2f2a24
x31y37=2f2a24
x32y37=2f2822
x33y37=2d2620
x34y37=2e2721
x35y37=2d2824
x36y37=342f2b
x37y37=2f2a26
x38y37=292420
x39y37=28231f
x40y37=292420
x41y37=26211d
x42y37=28231d
x43y37=27221c
x44y37=26211b
x45y37=241f19
x46y37=25221b
x47y37=211e19
x48y37=1d1a15
x49y37=1f1a16
x50y37=231e1a
x51y37=221d17
x52y37=201b15
x53y37=1e1913
x54y37=201b15
x55y37=241f19
x56y37=221d17
x57y37=241f19
x58y37=231e18
x59y37=25201a
x60y37=241f19
x61y37=231e18
x62y37=231e18
x63y37=241f19
x64y37=26211b
x65y37=25201a
x66y37=25201a
x67y37=231e18
x68y37=25201a
x69y37=27231a
x70y37=2b271e
x71y37=322e25
x72y37=302c23
x73y37=352e28
x74y37=352e28
x75y37=372e29
x76y37=372e29
x77y37=312823
x78y37=342b26
x79y37=382f28
x80y37=3d342d
x81y37=41342c
x82y37=3e3129
x83y37=382b23
x84y37=392c24
x85y37=3d332a
x86y37=382e25
x87y37=30261d
x88y37=2c2219
x89y37=251c13
x90y37=241b12
x91y37=271e15
x92y37=231a11
x93y37=261d14
x94y37=231a11
x95y37=241b12
x96y37=261f17
x97y37=211a12
x98y37=241d15
x99y37=261d16
x100y37=251c15
x101y37=1b140e
x102y37=26231e
x103y37=2e2d29
x104y37=4c4b47
x105y37=56524f
x106y37=534e4b
x107y37=463f39
x108y37=403931
x109y37=322b23
x110y37=2b241c
x111y37=2c251f
x112y37=28211b
x113y37=271f1c
x114y37=231b18
x115y37=261d16
x116y37=40372e
x117y37=60564c
x118y37=8f8279
x119y37=8a8076
x120y37=80766c
x121y37=83796d
x122y37=7f7569
x123y37=766c60
x124y37=736960
x125y37=726962
x126y37=534c46
x127y37=524d49
x128y37=524d49
x129y37=403b35
x130y37=4c453f
x131y37=423934
x132y37=473e39
x133y37=443f39
x134y37=312c26
x135y37=2c2721
x136y37=2e2923
x137y37=29221c
x138y37=1f1a14
x139y37=1e1913
x140y37=291a15
x141y37=4a2826
x142y37=894d4d
x143y37=bb5e66
x144y37=d25f6c
x145y37=d65d6e
x146y37=d75a6a
x147y37=d65967
x148y37=d25460
x149y37=d2505c
x150y37=c94550
x151y37=b8343f
x152y37=d44e59
x153y37=e8626d
x154y37=eb6371
x155y37=ee6474
x156y37=ee6474
x157y37=eb6171
x158y37=ea6171
x159y37=ee6474
x160y37=ee6575
x161y37=eb6475
x162y37=da5769
x163y37=c23f51
x164y37=b93648
x165y37=b23143
x166y37=aa293b
x167y37=a92938
x168y37=ad2d3c
x169y37=b0303f
x170y37=b23241
x171y37=b33342
x172y37=b93948
x173y37=b93948
x174y37=bc3c4b
x175y37=c64353
x176y37=c24251
x1y38=eb677f
x2y38=e96781
x3y38=e05e78
x4y38=de5c78
x5y38=d95471
x6y38=d6516e
x7y38=d2506c
x8y38=ce4e67
x9y38=cd4d66
x10y38=cf5169
x11y38=d25871
x12y38=d05c73
x13y38=d0667c
x14y38=cb7081
x15y38=c8808b
x16y38=b78489
x17y38=9c807f
x18y38=8b807c
x19y38=7a7571
x20y38=696564
x21y38=666062
x22y38=5f5659
x23y38=574e4f
x24y38=504846
x25y38=3e3633
x26y38=3b342e
x27y38=322e25
x28y38=312d24
x29y38=302b25
x30y38=332e28
x31y38=312c26
x32y38=312c26
x33y38=352e28
x34y38=342d27
x35y38=322b25
x36y38=2b2622
x37y38=35302c
x38y38=2b2622
x39y38=2b2622
x40y38=2b2622
x41y38=28231f
x42y38=26211d
x43y38=241f19
x44y38=241f19
x45y38=231e18
x46y38=1d1a13
x47y38=221f1a
x48y38=26231e
x49y38=231e1a
x50y38=221d19
x51y38=25201a
x52y38=231e18
x53y38=231e18
x54y38=241f19
x55y38=221d17
x56y38=231e18
x57y38=221d17
x58y38=221d17
x59y38=241f19
x60y38=241f19
x61y38=211c16
x62y38=231e18
x63y38=25201a
x64y38=26211b
x65y38=241f19
x66y38=231e18
x67y38=25201a
x68y38=25201a
x69y38=2a261d
x70y38=2c281f
x71y38=2c281f
x72y38=2c281f
x73y38=2f2822
x74y38=302923
x75y38=322924
x76y38=352c27
x77y38=2f2621
x78y38=342b26
x79y38=362d26
x80y38=3d342d
x81y38=42352d
x82y38=3f322a
x83y38=3c2f27
x84y38=3c2f27
x85y38=382e25
x86y38=352c23
x87y38=30271e
x88y38=2a2118
x89y38=221910
x90y38=251e14
x91y38=221b11
x92y38=2a2319
x93y38=231c12
x94y38=211a10
x95y38=251e14
x96y38=2f2820
x97y38=27201a
x98y38=201913
x99y38=221b13
x100y38=221b13
x101y38=16110b
x102y38=1c1711
x103y38=2e2b26
x104y38=4c4845
x105y38=494441
x106y38=413c38
x107y38=413936
x108y38=38312b
x109y38=342d27
x110y38=2f2820
x111y38=2d2620
x112y38=2b241e
x113y38=2a221f
x114y38=261f19
x115y38=211a12
x116y38=383129
x117y38=5b5148
x118y38=8d8077
x119y38=85776c
x120y38=a6988b
x121y38=b9ac9c
x122y38=b7aa9a
x123y38=b4a699
x124y38=b5a89f
x125y38=918881
x126y38=5d5650
x127y38=4c4743
x128y38=46433e
x129y38=413c36
x130y38=3f3832
x131y38=362d28
x132y38=39302b
x133y38=312c26
x134y38=28231d
x135y38=2d261e
x136y38=2f2820
x137y38=2e2721
x138y38=27221c
x139y38=1e1b16
x140y38=211813
x141y38=3a221e
x142y38=986665
x143y38=c86d74
x144y38=d4616e
x145y38=d85f6e
x146y38=df6270
x147y38=df616d
x148y38=db5c67
x149y38=d64f5d
x150y38=cf4753
x151y38=e25a68
x152y38=ed6573
x153y38=f06876
x154y38=ef6676
x155y38=f06676
x156y38=ee6474
x157y38=ed6474
x158y38=ee6575
x159y38=ee6474
x160y38=ed6476
x161y38=e45f72
x162y38=ca4759
x163y38=b63547
x164y38=b02f41
x165y38=a9283a
x166y38=ad2d3c
x167y38=ad2d3c
x168y38=b43141
x169y38=b93646
x170y38=c13c4d
x171y38=bf3a4b
x172y38=c43f50
x173y38=c64152
x174y38=c94455
x175y38=ca4556
x176y38=c74454
x1y39=e6647e
x2y39=e6647e
x3y39=e2607a
x4y39=e05e78
x5y39=e4627e
x6y39=dd5c78
x7y39=dc5d78
x8y39=dd617b
x9y39=e0647c
x10y39=d65c73
x11y39=d25c72
x12y39=d06076
x13y39=ca677b
x14y39=c27481
x15y39=b28187
x16y39=907375
x17y39=766666
x18y39=655d5b
x19y39=5f5a57
x20y39=4d4845
x21y39=4e4546
x22y39=494041
x23y39=48403e
x24y39=514746
x25y39=453b39
x26y39=3c332e
x27y39=362f27
x28y39=322e25
x29y39=342d25
x30y39=332c24
x31y39=312c26
x32y39=322d27
x33y39=352e26
x34y39=413831
x35y39=3a312a
x36y39=302923
x37y39=332c26
x38y39=2f2822
x39y39=2c251f
x40y39=2e2721
x41y39=2c251f
x42y39=2b241e
x43y39=2a231d
x44y39=29221c
x45y39=29221c
x46y39=29241e
x47y39=2b2620
x48y39=241f19
x49y39=25201c
x50y39=241f1b
x51y39=241f19
x52y39=211c16
x53y39=211c16
x54y39=241f19
x55y39=241f19
x56y39=25201a
x57y39=241f19
x58y39=25201a
x59y39=241f19
x60y39=231e18
x61y39=231e18
x62y39=25201a
x63y39=26211b
x64y39=28231d
x65y39=2a231d
x66y39=29221c
x67y39=29221c
x68y39=261f19
x69y39=28241b
x70y39=27231a
x71y39=2b271e
x72y39=343027
x73y39=2c2721
x74y39=302b25
x75y39=38312b
x76y39=352e28
x77y39=312a24
x78y39=322b25
x79y39=322b23
x80y39=3f362f
x81y39=483b33
x82y39=453830
x83y39=42352d
x84y39=3c3229
x85y39=352b22
x86y39=322920
x87y39=2c231c
x88y39=231c14
x89y39=251e16
x90y39=241d15
x91y39=241d15
x92y39=241d15
x93y39=221b13
x94y39=231c14
x95y39=2b241c
x96y39=352e26
x97y39=29221c
x98y39=231e18
x99y39=221d17
x100y39=241f19
x101y39=211c16
x102y39=211c16
x103y39=2d2a25
x104y39=3c3934
x105y39=5a5551
x106y39=3d3834
x107y39=393430
x108y39=39342e
x109y39=302b25
x110y39=28231d
x111y39=2b241c
x112y39=2b241c
x113y39=2b241e
x114y39=2b241e
x115y39=27231a
x116y39=282119
x117y39=4a4037
x118y39=706259
x119y39=6a5a4d
x120y39=c1b1a2
x121y39=c3b3a3
x122y39=d1c1b1
x123y39=ddcdc0
x124y39=b7a99e
x125y39=a69c93
x126y39=5b544e
x127y39=393430
x128y39=393631
x129y39=44413a
x130y39=332e28
x131y39=3a352f
x132y39=3f3832
x133y39=2d261e
x134y39=2e271f
x135y39=2a211c
x136y39=29221c
x137y39=312a24
x138y39=26211b
x139y39=1e1b16
x140y39=261e1b
x141y39=4f3d39
x142y39=916363
x143y39=bc6168
x144y39=d15d66
x145y39=d75d68
x146y39=dc5e6a
x147y39=d85964
x148y39=ca4653
x149y39=d14957
x150y39=ef6574
x151y39=ee6474
x152y39=f16878
x153y39=ef6676
x154y39=ef6676
x155y39=ee6575
x156y39=ed6573
x157y39=ef6775
x158y39=ec6574
x159y39=ee6575
x160y39=ec6576
x161y39=d75265
x162y39=bf3c4e
x163y39=b02f41
x164y39=b13042
x165y39=b23241
x166y39=b83847
x167y39=c13e4e
x168y39=c84553
x169y39=cb4755
x170y39=cc4554
x171y39=c84150
x172y39=cd4655
x173y39=cd4655
x174y39=cc4554
x175y39=c94251
x176y39=c74351
x1y40=e6667f
x2y40=e76780
x3y40=e7657f
x4y40=e5607b
x5y40=e3617d
x6y40=e4637f
x7y40=e56985
x8y40=e26881
x9y40=e0667d
x10y40=e26c82
x11y40=db6c7f
x12y40=d57082
x13y40=cb7786
x14y40=c0838b
x15y40=9b7d7f
x16y40=716362
x17y40=5e5455
x18y40=565050
x19y40=4e4946
x20y40=4b4643
x21y40=4b4643
x22y40=443c39
x23y40=413736
x24y40=403634
x25y40=3f3533
x26y40=3d3331
x27y40=352e28
x28y40=352e26
x29y40=362d26
x30y40=342b24
x31y40=322b25
x32y40=322b23
x33y40=3c352d
x34y40=3a312a
x35y40=3a312a
x36y40=3f3830
x37y40=3d3630
x38y40=2b241e
x39y40=2b241e
x40y40=2b241e
x41y40=2d2620
x42y40=2a231d
x43y40=27201a
x44y40=342d27
x45y40=27201a
x46y40=29221c
x47y40=241f19
x48y40=231e18
x49y40=231e1a
x50y40=26211d
x51y40=231e18
x52y40=241f19
x53y40=231e18
x54y40=211c16
x55y40=25201a
x56y40=241f19
x57y40=25201a
x58y40=241f19
x59y40=231e18
x60y40=221d17
x61y40=231e18
x62y40=241f19
x63y40=241f19
x64y40=26211b
x65y40=27201a
x66y40=261f19
x67y40=221b15
x68y40=27201a
x69y40=252118
x70y40=29251c
x71y40=29251c
x72y40=2c281f
x73y40=2e2923
x74y40=2f2a24
x75y40=312a24
x76y40=312a24
x77y40=2c251f
x78y40=2c251f
x79y40=2e271f
x80y40=342b24
x81y40=483b33
x82y40=4c3f37
x83y40=44372f
x84y40=372d24
x85y40=30261d
x86y40=2d241b
x87y40=282119
x88y40=2b241c
x89y40=231f16
x90y40=241d15
x91y40=272018
x92y40=241d15
x93y40=231c14
x94y40=231c14
x95y40=271e17
x96y40=241b14
x97y40=27201a
x98y40=221d17
x99y40=1c1711
x100y40=1c1711
x101y40=19140e
x102y40=17120c
x103y40=25221d
x104y40=2d2a25
x105y40=4b4642
x106y40=45403c
x107y40=3b3632
x108y40=3c3733
x109y40=312c26
x110y40=2a251f
x111y40=2a231b
x112y40=2a231b
x113y40=27201a
x114y40=27201a
x115y40=27241b
x116y40=221e15
x117y40=332920
x118y40=4a3c33
x119y40=6e5e51
x120y40=ad9b8d
x121y40=b3a292
x122y40=b9a898
x123y40=bdab9d
x124y40=b4a69b
x125y40=a0968d
x126y40=564f47
x127y40=322d27
x128y40=2e2b26
x129y40=37342d
x130y40=37342d
x131y40=413c36
x132y40=3f3832
x133y40=332c24
x134y40=2a231b
x135y40=28211b
x136y40=312a24
x137y40=362f29
x138y40=2d2822
x139y40=22211c
x140y40=38332f
x141y40=5e504d
x142y40=8a6061
x143y40=bc6065
x144y40=d25a63
x145y40=d65a64
x146y40=d2535c
x147y40=cb4754
x148y40=db5462
x149y40=f56b7b
x150y40=f36979
x151y40=ef6477
x152y40=f06779
x153y40=ee6577
x154y40=ec6574
x155y40=ec6373
x156y40=ee6674
x157y40=ec6573
x158y40=e96271
x159y40=ef6879
x160y40=e86172
x161y40=c74255
x162y40=b83547
x163y40=c03d4f
x164y40=c14150
x165y40=c64353
x166y40=c4414f
x167y40=c74452
x168y40=c94553
x169y40=cd4655
x170y40=cb4351
x171y40=c73e4e
x172y40=cb4351
x173y40=c94050
x174y40=c8404e
x175y40=c63d4d
x176y40=c23b49
x1y41=e86783
x2y41=e56480
x3y41=e5637d
x4y41=e7627d
x5y41=e65f7d
x6y41=e3617d
x7y41=e2637e
x8y41=e16780
x9y41=df657c
x10y41=da667b
x11y41=da7384
x12y41=d27e8b
x13y41=c1858d
x14y41=a27e80
x15y41=887676
x16y41=685e5f
x17y41=615758
x18y41=564d4e
x19y41=554d4b
x20y41=524d49
x21y41=46413d
x22y41=413c36
x23y41=403835
x24y41=423836
x25y41=453b39
x26y41=453b39
x27y41=3d342f
x28y41=3c332e
x29y41=3f342e
x30y41=352c25
x31y41=332c24
x32y41=3a332b
x33y41=2e271f
x34y41=3a3329
x35y41=352e26
x36y41=2e2a21
x37y41=2a251f
x38y41=2a251f
x39y41=27221c
x40y41=28231d
x41y41=29241e
x42y41=28231d
x43y41=28211b
x44y41=28211b
x45y41=27221c
x46y41=241f19
x47y41=241f19
x48y41=231e18
x49y41=25201a
x50y41=25201a
x51y41=231e18
x52y41=231e18
x53y41=221d17
x54y41=221d17
x55y41=231e18
x56y41=241f19
x57y41=27221c
x58y41=241f19
x59y41=26211b
x60y41=221d17
x61y41=221d17
x62y41=241f19
x63y41=231e18
x64y41=28231d
x65y41=302923
x66y41=2e2721
x67y41=28211b
x68y41=261f19
x69y41=262219
x70y41=343027
x71y41=2e2923
x72y41=2c2721
x73y41=2d2822
x74y41=2c2721
x75y41=38332d
x76y41=39342e
x77y41=2d2620
x78y41=2e2721
x79y41=2e2721
x80y41=413831
x81y41=574d44
x82y41=4c3f37
x83y41=443731
x84y41=372c26
x85y41=2a211a
x86y41=251e16
x87y41=211a12
x88y41=201911
x89y41=251e16
x90y41=241d15
x91y41=282119
x92y41=272018
x93y41=251c15
x94y41=241b14
x95y41=2e251e
x96y41=221912
x97y41=211a14
x98y41=2a231d
x99y41=241f19
x100y41=1c1711
x101y41=19140e
x102y41=18130d
x103y41=1f1a14
x104y41=241f19
x105y41=36312d
x106y41=4b4642
x107y41=413c38
x108y41=423d39
x109y41=36312b
x110y41=2f2a24
x111y41=2c251d
x112y41=2d261c
x113y41=292019
x114y41=272018
x115y41=26231a
x116y41=221f16
x117y41=2d241d
x118y41=63564e
x119y41=705f55
x120y41=8f7d6f
x121y41=a39081
x122y41=9b8a7a
x123y41=827062
x124y41=b4a399
x125y41=81776e
x126y41=625b53
x127y41=28231d
x128y41=302b25
x129y41=45423d
x130y41=393631
x131y41=322d27
x132y41=332c26
x133y41=352e26
x134y41=2e2a21
x135y41=241f19
x136y41=2a2521
x137y41=38312b
x138y41=3c3731
x139y41=3e3d38
x140y41=4e4b46
x141y41=615654
x142y41=906667
x143y41=bb5f64
x144y41=ce555e
x145y41=cb4e54
x146y41=d14f57
x147y41=e96270
x148y41=f46b7b
x149y41=f2697b
x150y41=ef6678
x151y41=f46b7d
x152y41=ed6476
x153y41=ec6373
x154y41=ea6171
x155y41=ea6171
x156y41=eb6272
x157y41=e96070
x158y41=e96273
x159y41=f0697a
x160y41=d95465
x161y41=c74051
x162y41=c33e4f
x163y41=c13c4d
x164y41=bf3c4a
x165y41=c03c4a
x166y41=c33f4c
x167y41=c5414e
x168y41=c94250
x169y41=cb4351
x170y41=c93f4c
x171y41=cb4150
x172y41=c83e4b
x173y41=c83e4d
x174y41=c73f4b
x175y41=c53d4b
x176y41=c43c48
x1y42=e4637f
x2y42=e86783
x3y42=e76682
x4y42=e86680
x5y42=e4627e
x6y42=dc5b77
x7y42=da6079
x8y42=db657b
x9y42=de6a81
x10y42=d86e82
x11y42=cd7784
x12y42=c2838b
x13y42=a0797c
x14y42=695554
x15y42=564a4a
x16y42=554c4d
x17y42=584f50
x18y42=544b4c
x19y42=4e4644
x20y42=514946
x21y42=47423c
x22y42=4b4640
x23y42=403933
x24y42=3f3832
x25y42=3b342e
x26y42=38312b
x27y42=403732
x28y42=443935
x29y42=4b423b
x30y42=463d36
x31y42=372e27
x32y42=2f2820
x33y42=2c251b
x34y42=2a2319
x35y42=2b271e
x36y42=29251c
x37y42=29241e
x38y42=2b2620
x39y42=27221c
x40y42=27221c
x41y42=302b25
x42y42=29241e
x43y42=2a231d
x44y42=28211b
x45y42=25201a
x46y42=26211b
x47y42=26211b
x48y42=26211b
x49y42=26211b
x50y42=25201a
x51y42=241f19
x52y42=241f19
x53y42=231e18
x54y42=241f19
x55y42=25201a
x56y42=231e18
x57y42=231e18
x58y42=241f19
x59y42=26211b
x60y42=241f19
x61y42=26211b
x62y42=221d17
x63y42=221d17
x64y42=241f19
x65y42=35302a
x66y42=2c2721
x67y42=28211b
x68y42=26211b
x69y42=252118
x70y42=28241b
x71y42=2a251f
x72y42=332e28
x73y42=2f2a24
x74y42=403b35
x75y42=38332d
x76y42=2f2a24
x77y42=2b241e
x78y42=27201a
x79y42=2d2620
x80y42=49403b
x81y42=524741
x82y42=493f36
x83y42=392e28
x84y42=332822
x85y42=271e17
x86y42=201911
x87y42=1e170f
x88y42=261f17
x89y42=251e16
x90y42=231c14
x91y42=231c14
x92y42=272018
x93y42=261d16
x94y42=281d17
x95y42=2a211a
x96y42=261d16
x97y42=201913
x98y42=211a14
x99y42=241f19
x100y42=201b15
x101y42=1c1711
x102y42=16110b
x103y42=19140e
x104y42=221d17
x105y42=292420
x106y42=4f4a46
x107y42=524d49
x108y42=45403c
x109y42=35302a
x110y42=363229
x111y42=352e26
x112y42=2e271d
x113y42=2d241d
x114y42=2a231b
x115y42=242118
x116y42=242118
x117y42=2d241d
x118y42=74675f
x119y42=907f75
x120y42=a79589
x121y42=aa9989
x122y42=968575
x123y42=7a685c
x124y42=6d5f54
x125y42=5a5047
x126y42=564f47
x127y42=26211b
x128y42=2c2721
x129y42=39362f
x130y42=2e2923
x131y42=2c2421
x132y42=352e28
x133y42=2e2a21
x134y42=29261d
x135y42=1e1b14
x136y42=25221d
x137y42=35302a
x138y42=544f49
x139y42=585752
x140y42=4a4742
x141y42=655a58
x142y42=875f60
x143y42=b2575c
x144y42=c14a50
x145y42=ce4f56
x146y42=e4606b
x147y42=f16a78
x148y42=f16878
x149y42=ef6678
x150y42=ef6678
x151y42=f66d7f
x152y42=eb6272
x153y42=ef6775
x154y42=ec6472
x155y42=e96070
x156y42=ea6171
x157y42=e96072
x158y42=ea6173
x159y42=eb6475
x160y42=d24d5e
x161y42=c94253
x162y42=bc3544
x163y42=bc3544
x164y42=ba3643
x165y42=c03c49
x166y42=c5414e
x167y42=ca4351
x168y42=ce4652
x169y42=ce4451
x170y42=cb414e
x171y42=d04451
x172y42=cf4350
x173y42=cf4552
x174y42=ce4451
x175y42=cc4450
x176y42=cb434f
x1y43=e86986
x2y43=e56681
x3y43=e66782
x4y43=e46882
x5y43=df637b
x6y43=db647a
x7y43=d86479
x8y43=d76a7d
x9y43=ce697b
x10y43=c56e7e
x11y43=ba7d85
x12y43=a47b7f
x13y43=7a6667
x14y43=625856
x15y43=59514f
x16y43=504846
x17y43=473f3d
x18y43=463e3c
x19y43=473f3c
x20y43=4c4441
x21y43=47423c
x22y43=423d37
x23y43=3b342c
x24y43=2f2820
x25y43=2d261e
x26y43=312a24
x27y43=322924
x28y43=352c27
x29y43=3a332d
x30y43=3a332d
x31y43=3f362f
x32y43=393029
x33y43=312a22
x34y43=29251c
x35y43=26211b
x36y43=2b2620
x37y43=27241f
x38y43=282520
x39y43=292420
x40y43=28231f
x41y43=26211d
x42y43=231e1a
x43y43=26211b
x44y43=25201a
x45y43=231e1a
x46y43=27221e
x47y43=26211d
x48y43=221d19
x49y43=25201a
x50y43=28231d
x51y43=25201a
x52y43=231e18
x53y43=221d17
x54y43=25201a
x55y43=241f19
x56y43=231e18
x57y43=221d17
x58y43=241f19
x59y43=221d17
x60y43=25201a
x61y43=201b15
x62y43=211c16
x63y43=201b15
x64y43=231e18
x65y43=29241e
x66y43=25221b
x67y43=231e18
x68y43=232019
x69y43=232019
x70y43=24211a
x71y43=27241d
x72y43=2e2b24
x73y43=322d27
x74y43=3b3630
x75y43=352e28
x76y43=312a24
x77y43=312823
x78y43=2e2520
x79y43=362d28
x80y43=534a45
x81y43=50453f
x82y43=413630
x83y43=352c25
x84y43=2d241d
x85y43=221912
x86y43=241b14
x87y43=221b13
x88y43=251e16
x89y43=29221a
x90y43=2c251d
x91y43=281f18
x92y43=271e17
x93y43=271e17
x94y43=292019
x95y43=372c26
x96y43=2f261f
x97y43=231c16
x98y43=322b25
x99y43=211c16
x100y43=1f1a14
x101y43=201b15
x102y43=1f1a14
x103y43=19140e
x104y43=1f1a14
x105y43=2a2722
x106y43=3c3934
x107y43=4d4844
x108y43=47423e
x109y43=423b35
x110y43=312a22
x111y43=342d25
x112y43=2f281e
x113y43=2f281e
x114y43=2d261c
x115y43=2a271e
x116y43=28241b
x117y43=312a24
x118y43=524741
x119y43=65574e
x120y43=a08f85
x121y43=958578
x122y43=9d8d80
x123y43=7a695f
x124y43=41342b
x125y43=595049
x126y43=4c453f
x127y43=262219
x128y43=2e2a21
x129y43=353128
x130y43=29241e
x131y43=2c2421
x132y43=2d2522
x133y43=282520
x134y43=202018
x135y43=1d1c17
x136y43=1f1e19
x137y43=322f28
x138y43=54514a
x139y43=56534e
x140y43=494441
x141y43=483d3b
x142y43=7b5856
x143y43=9f4e4d
x144y43=b44345
x145y43=de6169
x146y43=f06977
x147y43=ee6575
x148y43=ee6575
x149y43=ee6776
x150y43=ef6877
x151y43=f36a7a
x152y43=ea6171
x153y43=eb6170
x154y43=eb6170
x155y43=eb6171
x156y43=eb6171
x157y43=e95e71
x158y43=ec6375
x159y43=e45d6e
x160y43=c74253
x161y43=c33c4b
x162y43=bc3543
x163y43=be3745
x164y43=c13a48
x165y43=c94250
x166y43=cc4651
x167y43=cc4450
x168y43=cf4751
x169y43=d04751
x170y43=cd444e
x171y43=d24651
x172y43=d24651
x173y43=d14852
x174y43=d14852
x175y43=d14955
x176y43=d24a56
x1y44=e36783
x2y44=e16682
x3y44=cc546d
x4y44=c04a62
x5y44=ca566d
x6y44=d26376
x7y44=d76c7e
x8y44=d47482
x9y44=ca7886
x10y44=b77881
x11y44=986f75
x12y44=745b5e
x13y44=5b4f4f
x14y44=514c49
x15y44=433b39
x16y44=443c39
x17y44=45403c
x18y44=413936
x19y44=443a38
x20y44=493f3d
x21y44=433c36
x22y44=3b3630
x23y44=3a332d
x24y44=3b372e
x25y44=322e25
x26y44=2b271e
x27y44=2d2620
x28y44=2c251f
x29y44=302923
x30y44=342d27
x31y44=352c25
x32y44=3d342d
x33y44=342d25
x34y44=2f2b22
x35y44=2d2822
x36y44=2a251f
x37y44=292621
x38y44=26231e
x39y44=27221e
x40y44=27221e
x41y44=26211d
x42y44=25201c
x43y44=231e18
x44y44=231e18
x45y44=231e1a
x46y44=211c18
x47y44=25201c
x48y44=26211d
x49y44=241f19
x50y44=221d17
x51y44=241f19
x52y44=29241e
x53y44=25201a
x54y44=221d17
x55y44=231e18
x56y44=231e18
x57y44=231e18
x58y44=221d17
x59y44=231e18
x60y44=201b15
x61y44=1d1812
x62y44=201b15
x63y44=1f1a14
x64y44=231e18
x65y44=25221b
x66y44=232019
x67y44=1f1c15
x68y44=201d16
x69y44=201d16
x70y44=201d16
x71y44=232019
x72y44=2a2720
x73y44=332e28
x74y44=39342e
x75y44=3a332d
x76y44=413a34
x77y44=413833
x78y44=3f3631
x79y44=534a45
x80y44=5d544f
x81y44=423731
x82y44=352c25
x83y44=312821
x84y44=2b241c
x85y44=261d16
x86y44=241b14
x87y44=261d16
x88y44=29221a
x89y44=2a211a
x90y44=2a211a
x91y44=2b221b
x92y44=2b201a
x93y44=251c15
x94y44=241b14
x95y44=382d27
x96y44=2c231c
x97y44=271e19
x98y44=201913
x99y44=1e1913
x100y44=1f1a14
x101y44=1b1610
x102y44=28231d
x103y44=15100a
x104y44=1b1811
x105y44=201d18
x106y44=33302b
x107y44=534e4a
x108y44=494440
x109y44=3c352f
x110y44=2f2822
x111y44=2d261e
x112y44=2d261c
x113y44=2e271d
x114y44=282419
x115y44=28241b
x116y44=262219
x117y44=28211b
x118y44=352c25
x119y44=42382f
x120y44=a2958c
x121y44=a89a8f
x122y44=8d7f74
x123y44=72655c
x124y44=392f26
x125y44=3f3631
x126y44=39342e
x127y44=211c16
x128y44=2e2a21
x129y44=353128
x130y44=28231d
x131y44=261e1b
x132y44=271f1d
x133y44=221e1b
x134y44=1b1a15
x135y44=181712
x136y44=1e1e16
x137y44=252219
x138y44=504d46
x139y44=716e69
x140y44=56514d
x141y44=514340
x142y44=603a37
x143y44=873633
x144y44=c45355
x145y44=e2636e
x146y44=ec6574
x147y44=ee6575
x148y44=ee6776
x149y44=ec6574
x150y44=ed6675
x151y44=ef6676
x152y44=ed6474
x153y44=eb6170
x154y44=eb6170
x155y44=e95f6f
x156y44=ea6070
x157y44=eb6171
x158y44=ec6375
x159y44=da5364
x160y44=ce4756
x161y44=c73f4d
x162y44=c9414f
x163y44=c8414f
x164y44=cf4954
x165y44=d24c57
x166y44=d34d56
x167y44=d34b55
x168y44=d54d57
x169y44=d34a54
x170y44=d04751
x171y44=d24953
x172y44=d44b55
x173y44=d44b55
x174y44=d54c56
x175y44=d34b57
x176y44=d24a56
x1y45=e46985
x2y45=c9536d
x3y45=a5354d
x4y45=b94e62
x5y45=c1566a
x6y45=bf5569
x7y45=c76476
x8y45=c77382
x9y45=bd7f8a
x10y45=a47b81
x11y45=7e6569
x12y45=584a4a
x13y45=504647
x14y45=524a48
x15y45=433b39
x16y45=3c3733
x17y45=3e3633
x18y45=39322c
x19y45=3b312f
x20y45=403634
x21y45=3c3431
x22y45=37302a
x23y45=39342e
x24y45=322d27
x25y45=312d24
x26y45=2f2b22
x27y45=2e2923
x28y45=2f2822
x29y45=2d2620
x30y45=28211b
x31y45=28231d
x32y45=2b2620
x33y45=312a24
x34y45=352e28
x35y45=2a251f
x36y45=2c2721
x37y45=28231f
x38y45=27221e
x39y45=292420
x40y45=292420
x41y45=26211b
x42y45=28231d
x43y45=28231d
x44y45=241f19
x45y45=231e1a
x46y45=211c18
x47y45=241f1c
x48y45=231e1a
x49y45=211c16
x50y45=231e18
x51y45=231e18
x52y45=25201a
x53y45=25201a
x54y45=231e18
x55y45=231e18
x56y45=25201a
x57y45=221d17
x58y45=241f19
x59y45=25201a
x60y45=201b15
x61y45=201d16
x62y45=1f1c15
x63y45=1d1a13
x64y45=1f1c15
x65y45=1e1b16
x66y45=1e1b16
x67y45=1c1b16
x68y45=21201b
x69y45=26231c
x70y45=232019
x71y45=211e17
x72y45=232019
x73y45=342f29
x74y45=322d27
x75y45=4a433d
x76y45=4e4741
x77y45=4e4741
x78y45=463f39
x79y45=3f3830
x80y45=463f37
x81y45=443b36
x82y45=342b26
x83y45=312821
x84y45=292019
x85y45=281f18
x86y45=2a211a
x87y45=271e17
x88y45=2a211a
x89y45=2c211b
x90y45=2d241d
x91y45=2c231c
x92y45=281f18
x93y45=2a1f19
x94y45=291e18
x95y45=251c15
x96y45=221912
x97y45=211813
x98y45=241d17
x99y45=201c13
x100y45=1c180f
x101y45=1b1811
x102y45=18150e
x103y45=191611
x104y45=13100b
x105y45=1d1a15
x106y45=211e19
x107y45=2e2925
x108y45=38332f
x109y45=39322c
x110y45=312a24
x111y45=2b271e
x112y45=2b271e
x113y45=2d2920
x114y45=302c23
x115y45=262219
x116y45=211d14
x117y45=231e18
x118y45=2d2620
x119y45=453c35
x120y45=3f362d
x121y45=aca299
x122y45=aca299
x123y45=756c63
x124y45=4a413a
x125y45=2d2620
x126y45=2f2a26
x127y45=201b17
x128y45=211e17
x129y45=1f1c13
x130y45=201c13
x131y45=241f1b
x132y45=231e1b
x133y45=1f1b18
x134y45=1b1714
x135y45=19160f
x136y45=19160d
x137y45=2a261d
x138y45=46413b
x139y45=5c5954
x140y45=645c59
x141y45=4b3c35
x142y45=522721
x143y45=a34847
x144y45=de656a
x145y45=ec6a76
x146y45=ed6675
x147y45=ed6675
x148y45=ec6573
x149y45=ea6371
x150y45=ec6472
x151y45=ed6474
x152y45=ee6474
x153y45=eb6171
x154y45=eb6171
x155y45=ea6270
x156y45=ec6472
x157y45=ea6270
x158y45=ec6373
x159y45=d44b5d
x160y45=ce4555
x161y45=cc4452
x162y45=c8404c
x163y45=c9414d
x164y45=d44c56
x165y45=d04852
x166y45=d44c56
x167y45=d54c56
x168y45=d54c54
x169y45=d44b53
x170y45=d54c54
x171y45=d64d57
x172y45=d64e58
x173y45=d34b55
x174y45=d54d57
x175y45=d44c56
x176y45=d44c56
x1y46=d8637d
x2y46=af3d56
x3y46=a73d53
x4y46=c15a6f
x5y46=c2586c
x6y46=bf596e
x7y46=b75c6d
x8y46=b56d79
x9y46=a87b82
x10y46=82686b
x11y46=5d4f4f
x12y46=4c4344
x13y46=4c4243
x14y46=4a4142
x15y46=4b4643
x16y46=3e3935
x17y46=3c3431
x18y46=3d3532
x19y46=3a322f
x20y46=38302d
x21y46=39312e
x22y46=35302c
x23y46=2f2a24
x24y46=2d2822
x25y46=28251e
x26y46=28251e
x27y46=2a2720
x28y46=2c2721
x29y46=2e2923
x30y46=2a251f
x31y46=2c2721
x32y46=27221c
x33y46=2c251f
x34y46=2b241e
x35y46=2d2822
x36y46=2c2721
x37y46=2b2622
x38y46=2b2622
x39y46=28231f
x40y46=27221c
x41y46=28231d
x42y46=241f19
x43y46=26211b
x44y46=25201a
x45y46=221d19
x46y46=201b17
x47y46=211c19
x48y46=231e1a
x49y46=241f19
x50y46=201b15
x51y46=211c16
x52y46=241f19
x53y46=221d17
x54y46=211c16
x55y46=241f19
x56y46=241f19
x57y46=221d17
x58y46=231e18
x59y46=241f19
x60y46=25201a
x61y46=201d16
x62y46=1f1c15
x63y46=211e17
x64y46=1d1a13
x65y46=1d1a15
x66y46=1e1b16
x67y46=1e1b16
x68y46=1b1a15
x69y46=211e17
x70y46=201d16
x71y46=232019
x72y46=24211a
x73y46=29241e
x74y46=35302a
x75y46=4d4640
x76y46=4d4640
x77y46=4c453f
x78y46=403933
x79y46=3c352d
x80y46=403931
x81y46=3d342f
x82y46=332a25
x83y46=2b221b
x84y46=2d241d
x85y46=2b221b
x86y46=261d16
x87y46=312620
x88y46=3f342e
x89y46=2f241e
x90y46=2b201a
x91y46=2b221b
x92y46=281f18
x93y46=281d17
x94y46=251a14
x95y46=281f18
x96y46=302720
x97y46=2a211c
x98y46=1f1812
x99y46=1f1b12
x100y46=27231a
x101y46=1a1710
x102y46=1a1710
x103y46=17140f
x104y46=15140f
x105y46=171611
x106y46=1b1a15
x107y46=25221d
x108y46=2d2824
x109y46=2b241e
x110y46=28231d
x111y46=27241b
x112y46=26231a
x113y46=2d2920
x114y46=28241b
x115y46=27231a
x116y46=221e15
x117y46=1f1a14
x118y46=221d17
x119y46=332f26
x120y46=59524a
x121y46=352c25
x122y46=786f68
x123y46=817a72
x124y46=3d3832
x125y46=28231f
x126y46=2d2824
x127y46=211e19
x128y46=1f1c17
x129y46=1d1a11
x130y46=201d14
x131y46=211e19
x132y46=211d1a
x133y46=1a1613
x134y46=191512
x135y46=19160f
x136y46=1a1710
x137y46=25201a
x138y46=3e3933
x139y46=66615d
x140y46=5d4f4c
x141y46=442520
x142y46=6c2f2c
x143y46=c65f62
x144y46=e4676f
x145y46=e66270
x146y46=e96271
x147y46=eb6473
x148y46=ed6674
x149y46=ef6775
x150y46=ea6171
x151y46=eb6171
x152y46=eb6171
x153y46=ec6272
x154y46=ec6272
x155y46=e95f6e
x156y46=eb6371
x157y46=ed6573
x158y46=e55d6b
x159y46=ca4151
x160y46=d44b5b
x161y46=cd4551
x162y46=c9414d
x163y46=cc444e
x164y46=d04852
x165y46=cf4751
x166y46=d34b55
x167y46=d34a52
x168y46=d34a52
x169y46=d54c54
x170y46=d75057
x171y46=d74f59
x172y46=d9515b
x173y46=d74f59
x174y46=d9515b
x175y46=d64e58
x176y46=d54d57
x1y47=c75a71
x2y47=9b2f46
x3y47=c1576b
x4y47=ce6478
x5y47=cf657b
x6y47=cb6a7d
x7y47=c16e80
x8y47=b37783
x9y47=86656c
x10y47=584849
x11y47=544a4b
x12y47=4f4949
x13y47=483f40
x14y47=3b3535
x15y47=342e2e
x16y47=332e2b
x17y47=372f2d
x18y47=342f2b
x19y47=35302c
x20y47=34312a
x21y47=38332d
x22y47=302b25
x23y47=35302c
x24y47=383530
x25y47=35302c
x26y47=2e2b24
x27y47=28251e
x28y47=29261f
x29y47=2b2821
x30y47=27241d
x31y47=2b2620
x32y47=2e2721
x33y47=2e2721
x34y47=2c251f
x35y47=28231d
x36y47=2a251f
x37y47=27241d
x38y47=27241d
x39y47=28251e
x40y47=26231c
x41y47=27241d
x42y47=26231a
x43y47=27241d
x44y47=25221b
x45y47=211e17
x46y47=232019
x47y47=201d18
x48y47=201d18
x49y47=201d16
x50y47=201d16
x51y47=211e17
x52y47=201d16
x53y47=221d17
x54y47=221d17
x55y47=231e18
x56y47=1f1a14
x57y47=211e17
x58y47=201d16
x59y47=232019
x60y47=211e17
x61y47=211e17
x62y47=1d1a13
x63y47=232019
x64y47=201d16
x65y47=1e1915
x66y47=1c1914
x67y47=1b1813
x68y47=191611
x69y47=19160f
x70y47=1e1b14
x71y47=27221c
x72y47=2f2a24
x73y47=27221c
x74y47=3d3832
x75y47=55504a
x76y47=423d37
x77y47=3a352f
x78y47=3c3731
x79y47=3a362d
x80y47=39322a
x81y47=2b221d
x82y47=302722
x83y47=2c231c
x84y47=2c231c
x85y47=312620
x86y47=312620
x87y47=32281f
x88y47=40362d
x89y47=2e241b
x90y47=2c2219
x91y47=2b2118
x92y47=2a2017
x93y47=2b2219
x94y47=281f16
x95y47=2b2219
x96y47=2a211a
x97y47=332a25
x98y47=2e2721
x99y47=211c16
x100y47=1c1912
x101y47=1e1b16
x102y47=1d1a15
x103y47=151410
x104y47=151410
x105y47=161511
x106y47=1f1e1a
x107y47=23201b
x108y47=2a2521
x109y47=28211b
x110y47=201b15
x111y47=232019
x112y47=24241c
x113y47=2c2922
x114y47=2c2721
x115y47=262219
x116y47=1f1b12
x117y47=1b1811
x118y47=1f1c15
x119y47=29261f
x120y47=67635a
x121y47=68645b
x122y47=312d24
x123y47=2d2822
x124y47=302d28
x125y47=2a2722
x126y47=474340
x127y47=231f1c
x128y47=211e19
x129y47=26211b
x130y47=24211a
x131y47=221f18
x132y47=1b1811
x133y47=1b1813
x134y47=17140f
x135y47=181712
x136y47=191813
x137y47=2d2926
x138y47=605b58
x139y47=66615d
x140y47=4b322e
x141y47=5a1d1c
x142y47=b85c5f
x143y47=da656e
x144y47=e2606c
x145y47=ea6371
x146y47=ec6574
x147y47=ec6574
x148y47=ed6675
x149y47=ef6676
x150y47=ed6373
x151y47=ee6172
x152y47=ec5f70
x153y47=ec5f6f
x154y47=eb6170
x155y47=eb6170
x156y47=ee6674
x157y47=ec6573
x158y47=de5765
x159y47=ca4250
x160y47=d24a56
x161y47=cd4752
x162y47=ce4851
x163y47=cf4751
x164y47=ce4650
x165y47=cf484f
x166y47=d24b52
x167y47=d24b52
x168y47=d54e55
x169y47=d64f56
x170y47=d85158
x171y47=d9515b
x172y47=dc565f
x173y47=e05a63
x174y47=e05a63
x175y47=db535d
x176y47=d74f59
x1y48=ac465b
x2y48=a33d52
x3y48=c86277
x4y48=cb687a
x5y48=cd6f81
x6y48=c87484
x7y48=ac6c7a
x8y48=81565f
x9y48=685255
x10y48=544a4b
x11y48=504748
x12y48=413b3b
x13y48=3a3434
x14y48=322c2c
x15y48=373131
x16y48=3b3633
x17y48=3b3331
x18y48=38332f
x19y48=33302b
x20y48=302d26
x21y48=2e2923
x22y48=312c26
x23y48=2e2b26
x24y48=2f2c27
x25y48=38332f
x26y48=393430
x27y48=27241d
x28y48=25251d
x29y48=27271f
x30y48=2a2720
x31y48=2b2620
x32y48=2a251f
x33y48=2e2721
x34y48=2d2822
x35y48=2b2620
x36y48=2b2620
x37y48=2b2821
x38y48=27241d
x39y48=29261f
x40y48=25221b
x41y48=25221b
x42y48=29261f
x43y48=232019
x44y48=24211a
x45y48=232019
x46y48=24211a
x47y48=211e19
x48y48=221f1a
x49y48=221f18
x50y48=1e1b14
x51y48=1f1c15
x52y48=1f1c15
x53y48=211c16
x54y48=201b15
x55y48=241f19
x56y48=221d17
x57y48=1e1b14
x58y48=221f18
x59y48=211e17
x60y48=1f1c15
x61y48=232019
x62y48=201d16
x63y48=1d1a13
x64y48=24211a
x65y48=211c18
x66y48=1f1a16
x67y48=181510
x68y48=1a1712
x69y48=19160f
x70y48=24211a
x71y48=241f19
x72y48=26211b
x73y48=2c2721
x74y48=322d27
x75y48=3d3832
x76y48=3b3630
x77y48=3b3630
x78y48=39342e
x79y48=383129
x80y48=2b241c
x81y48=2d241f
x82y48=302722
x83y48=2f261f
x84y48=312821
x85y48=3a2f29
x86y48=3e332d
x87y48=372d24
x88y48=31271e
x89y48=31271e
x90y48=2c2219
x91y48=2d231a
x92y48=2f251c
x93y48=2b2219
x94y48=2f261d
x95y48=2d241b
x96y48=302720
x97y48=362d26
x98y48=39322c
x99y48=2f2a24
x100y48=322f28
x101y48=2a2722
x102y48=1d1a15
x103y48=181411
x104y48=151410
x105y48=14130f
x106y48=161511
x107y48=1e1b16
x108y48=231e1a
x109y48=3a3531
x110y48=28231d
x111y48=1d1a13
x112y48=212119
x113y48=27241d
x114y48=26231c
x115y48=221d17
x116y48=201b15
x117y48=1b1811
x118y48=16160e
x119y48=1f1c15
x120y48=35322b
x121y48=5c5751
x122y48=423d37
x123y48=25201a
x124y48=423d39
x125y48=322d29
x126y48=36312d
x127y48=37322e
x128y48=312c28
x129y48=2b2620
x130y48=29261f
x131y48=211e17
x132y48=1d1d15
x133y48=1b1813
x134y48=181510
x135y48=1f1e19
x136y48=373632
x137y48=62615d
x138y48=6d6562
x139y48=44322e
x140y48=421613
x141y48=a95054
x142y48=d5616a
x143y48=e2626f
x144y48=e96271
x145y48=ea6270
x146y48=e9616f
x147y48=ea6372
x148y48=ed6675
x149y48=ec6373
x150y48=eb6171
x151y48=ee6172
x152y48=ef6273
x153y48=ed6070
x154y48=ee6171
x155y48=eb6170
x156y48=ec6271
x157y48=e96270
x158y48=d54e5c
x159y48=c8404c
x160y48=d44c58
x161y48=ce4851
x162y48=ce4851
x163y48=cd454f
x164y48=d04950
x165y48=cf484f
x166y48=ce474e
x167y48=d14a51
x168y48=d44d54
x169y48=d64f56
x170y48=d85259
x171y48=db555e
x172y48=dd5760
x173y48=e15b64
x174y48=e05a63
x175y48=e05a63
x176y48=e15b64
x1y49=9f4255
x2y49=a24557
x3y49=c06274
x4y49=ca7282
x5y49=c37784
x6y49=b67a82
x7y49=876367
x8y49=584445
x9y49=534545
x10y49=504748
x11y49=483f40
x12y49=403a3a
x13y49=383232
x14y49=3b3736
x15y49=403b38
x16y49=4b4643
x17y49=3d3835
x18y49=3b3632
x19y49=342f2b
x20y49=322d29
x21y49=312c26
x22y49=2d2822
x23y49=2b2620
x24y49=302b25
x25y49=302b25
x26y49=2f2a24
x27y49=38352e
x28y49=28251e
x29y49=24211c
x30y49=24211c
x31y49=282520
x32y49=292621
x33y49=28231f
x34y49=2c2924
x35y49=2b2823
x36y49=292621
x37y49=2b2823
x38y49=282520
x39y49=221f1a
x40y49=23201b
x41y49=22211c
x42y49=21201b
x43y49=25221d
x44y49=25221d
x45y49=24211c
x46y49=24211c
x47y49=241f1b
x48y49=231e1a
x49y49=23201b
x50y49=211e19
x51y49=211e19
x52y49=1f1c17
x53y49=211e19
x54y49=201d18
x55y49=201d18
x56y49=1f1c17
x57y49=211e19
x58y49=201d18
x59y49=1c1912
x60y49=211e17
x61y49=201d16
x62y49=1e1b14
x63y49=201d16
x64y49=201d16
x65y49=201d18
x66y49=201c19
x67y49=1c1914
x68y49=1a1712
x69y49=181510
x70y49=1c1914
x71y49=1d1814
x72y49=211c18
x73y49=2b2622
x74y49=342f2b
x75y49=3c3733
x76y49=413c38
x77y49=3d3630
x78y49=3c352f
x79y49=3b322b
x80y49=2f261f
x81y49=2f261f
x82y49=302921
x83y49=312821
x84y49=2f261f
x85y49=322920
x86y49=372e25
x87y49=352c23
x88y49=342b22
x89y49=342a21
x90y49=2e241b
x91y49=2f221a
x92y49=2d231a
x93y49=292017
x94y49=352c23
x95y49=261f17
x96y49=241d15
x97y49=241d15
x98y49=221b13
x99y49=1f1812
x100y49=1e1913
x101y49=231e18
x102y49=34312a
x103y49=383530
x104y49=17140f
x105y49=171310
x106y49=16120f
x107y49=15110e
x108y49=181510
x109y49=1f1c17
x110y49=23201b
x111y49=181510
x112y49=1c1912
x113y49=25221b
x114y49=25221b
x115y49=221f1a
x116y49=1e1b16
x117y49=181510
x118y49=1a1712
x119y49=1a1712
x120y49=201d18
x121y49=3e3935
x122y49=716c66
x123y49=69645e
x124y49=706961
x125y49=564d46
x126y49=423932
x127y49=605752
x128y49=3a332d
x129y49=2b2821
x130y49=26231c
x131y49=211e19
x132y49=1b1a15
x133y49=181712
x134y49=1d1c17
x135y49=373330
x136y49=676360
x137y49=696864
x138y49=4f423c
x139y49=3b140f
x140y49=8f4748
x141y49=d1636c
x142y49=e4626e
x143y49=e7606f
x144y49=e96070
x145y49=e95f6f
x146y49=eb6171
x147y49=ea6270
x148y49=e9616f
x149y49=eb6371
x150y49=e75f6d
x151y49=ec6271
x152y49=ec6271
x153y49=ee6171
x154y49=eb5e6e
x155y49=ef6272
x156y49=eb6170
x157y49=e95f6e
x158y49=cf4755
x159y49=cb4351
x160y49=d34d58
x161y49=d14b54
x162y49=cd4750
x163y49=ce474e
x164y49=d04950
x165y49=cf484f
x166y49=d0494f
x167y49=d54c53
x168y49=d44b52
x169y49=d75158
x170y49=d7545a
x171y49=dd5a62
x172y49=dd5762
x173y49=e15b66
x174y49=e25c67
x175y49=e15b66
x176y49=dd5964
x1y50=a54c5e
x2y50=8b3445
x3y50=9a4354
x4y50=b66a77
x5y50=b87c86
x6y50=9b7479
x7y50=635151
x8y50=4b4341
x9y50=4f4647
x10y50=4d4445
x11y50=4a4142
x12y50=423c3c
x13y50=3c3837
x14y50=383433
x15y50=433e3b
x16y50=484340
x17y50=3f3a36
x18y50=393430
x19y50=342f2b
x20y50=342f2b
x21y50=302b25
x22y50=332e28
x23y50=302b25
x24y50=2c2721
x25y50=2d2822
x26y50=2b2620
x27y50=29261f
x28y50=2c2922
x29y50=282520
x30y50=26231e
x31y50=221f1a
x32y50=24211c
x33y50=24211c
x34y50=292621
x35y50=292621
x36y50=2a2722
x37y50=25221d
x38y50=27241f
x39y50=221f1a
x40y50=221f1a
x41y50=201f1a
x42y50=23221d
x43y50=25221d
x44y50=23201b
x45y50=25221d
x46y50=24211c
x47y50=221d19
x48y50=241f1b
x49y50=26231e
x50y50=23201b
x51y50=201d18
x52y50=221f1a
x53y50=201d18
x54y50=211e19
x55y50=201d18
x56y50=211e19
x57y50=24211c
x58y50=211e19
x59y50=201d16
x60y50=201d16
x61y50=25221b
x62y50=1f1c15
x63y50=1f1c15
x64y50=201d18
x65y50=1d1a15
x66y50=1d1916
x67y50=1c1914
x68y50=1c1914
x69y50=1b1813
x70y50=1c1914
x71y50=1c1713
x72y50=221d19
x73y50=241f1b
x74y50=312c28
x75y50=332e2a
x76y50=36312d
x77y50=39322c
x78y50=39322c
x79y50=3d322c
x80y50=372e27
x81y50=332a23
x82y50=302921
x83y50=302720
x84y50=2e251e
x85y50=30271e
x86y50=362d24
x87y50=494037
x88y50=3f362d
x89y50=382e25
x90y50=32281f
x91y50=372a22
x92y50=31271e
x93y50=2e251c
x94y50=2a2118
x95y50=272018
x96y50=282119
x97y50=2e271f
x98y50=342d25
x99y50=302923
x100y50=251e18
x101y50=211c16
x102y50=1b1610
x103y50=1b1813
x104y50=383530
x105y50=36322f
x106y50=171310
x107y50=16120f
x108y50=14100d
x109y50=181510
x110y50=23201b
x111y50=1d1a15
x112y50=191611
x113y50=1d1a13
x114y50=211e17
x115y50=1e1b16
x116y50=1a1613
x117y50=191512
x118y50=15110e
x119y50=15120d
x120y50=191611
x121y50=1f1a16
x122y50=534e48
x123y50=777068
x124y50=9a9188
x125y50=5c5249
x126y50=4d433a
x127y50=443933
x128y50=433a33
x129y50=3a352f
x130y50=2e2b24
x131y50=221f1a
x132y50=1b1813
x133y50=1e1d18
x134y50=2a2924
x135y50=393431
x136y50=3b3331
x137y50=4b413f
x138y50=371b18
x139y50=763435
x140y50=ca676c
x141y50=e26671
x142y50=ea6270
x143y50=ed6372
x144y50=e85e6e
x145y50=eb6171
x146y50=ea6070
x147y50=ea606f
x148y50=eb6170
x149y50=eb6371
x150y50=e9616f
x151y50=ec6271
x152y50=ee6473
x153y50=f16474
x154y50=ee6171
x155y50=ee6171
x156y50=e95f6e
x157y50=e35968
x158y50=c9414f
x159y50=cd4654
x160y50=d34d58
x161y50=d44e57
x162y50=cb454e
x163y50=cb444b
x164y50=cb444b
x165y50=cc454b
x166y50=ce474d
x167y50=d44b52
x168y50=d44d53
x169y50=d65359
x170y50=d6545c
x171y50=dc5863
x172y50=da5661
x173y50=dd5762
x174y50=dd5762
x175y50=d8545f
x176y50=d34f5a
x1y51=b45d6d
x2y51=a04c5c
x3y51=a35261
x4y51=a5636f
x5y51=9d747a
x6y51=6a5154
x7y51=524646
x8y51=4c4646
x9y51=4e4848
x10y51=4d4747
x11y51=413b3b
x12y51=44403f
x13y51=423e3d
x14y51=44403f
x15y51=484340
x16y51=403b37
x17y51=37342f
x18y51=35322d
x19y51=2f2c27
x20y51=322f2a
x21y51=2c2924
x22y51=2c2924
x23y51=2d2a23
x24y51=2b2821
x25y51=2d2a23
x26y51=29261f
x27y51=29261f
x28y51=26231c
x29y51=26231e
x30y51=25221d
x31y51=26231e
x32y51=23201b
x33y51=21201b
x34y51=1e1d18
x35y51=211e19
x36y51=24211c
x37y51=23201b
x38y51=25221d
x39y51=22211c
x40y51=22211c
x41y51=23221d
x42y51=21201b
x43y51=22211c
x44y51=201f1a
x45y51=23201b
x46y51=26231e
x47y51=27241f
x48y51=23201b
x49y51=23201b
x50y51=24211c
x51y51=221f1a
x52y51=1f1c17
x53y51=221f1a
x54y51=201d18
x55y51=201d16
x56y51=211e17
x57y51=201d16
x58y51=221f18
x59y51=1d1a13
x60y51=1f1c15
x61y51=1d1a15
x62y51=2f2c27
x63y51=25221d
x64y51=211e19
x65y51=1e1b16
x66y51=1d1a15
x67y51=171611
x68y51=171611
x69y51=181712
x70y51=171611
x71y51=181510
x72y51=1d1a15
x73y51=221d19
x74y51=312c28
x75y51=27241f
x76y51=3b3632
x77y51=48413b
x78y51=4b443e
x79y51=463b35
x80y51=362d26
x81y51=322922
x82y51=312a22
x83y51=322920
x84y51=2e241b
x85y51=32281f
x86y51=32281f
x87y51=31271e
x88y51=342a21
x89y51=30261d
x90y51=2e241b
x91y51=30261d
x92y51=2c2219
x93y51=271e17
x94y51=2a211a
x95y51=281f18
x96y51=272018
x97y51=231c16
x98y51=261f19
x99y51=27201a
x100y51=302923
x101y51=332e28
x102y51=332e28
x103y51=34312c
x104y51=302d28
x105y51=2e2d29
x106y51=3e3d39
x107y51=302c29
x108y51=15110e
x109y51=17140f
x110y51=25221d
x111y51=27241f
x112y51=1a1712
x113y51=19160f
x114y51=19160f
x115y51=1a1914
x116y51=181713
x117y51=14130f
x118y51=11100c
x119y51=11100b
x120y51=15140f
x121y51=1b1811
x122y51=2c2721
x123y51=655e56
x124y51=645b52
x125y51=3f352b
x126y51=55483f
x127y51=51473d
x128y51=4f463d
x129y51=413831
x130y51=2f2822
x131y51=221a17
x132y51=1a1511
x133y51=332e2a
x134y51=3e3b36
x135y51=575352
x136y51=706464
x137y51=472d2c
x138y51=561f22
x139y51=c26369
x140y51=e46a75
x141y51=e86471
x142y51=ea606f
x143y51=ee6171
x144y51=ed6070
x145y51=eb6170
x146y51=e95f6e
x147y51=e95f6e
x148y51=e95f6e
x149y51=e95f6e
x150y51=e95f6e
x151y51=eb6170
x152y51=ef6574
x153y51=ef6574
x154y51=ee6473
x155y51=ea606f
x156y51=e55d6b
x157y51=e05864
x158y51=c53f4a
x159y51=ca444f
x160y51=d34d58
x161y51=d7515a
x162y51=cd464d
x163y51=ca444b
x164y51=ca444b
x165y51=ca454a
x166y51=ce494e
x167y51=d24b52
x168y51=d34d54
x169y51=d5525a
x170y51=d45159
x171y51=d9535e
x172y51=d7535e
x173y51=d4505b
x174y51=d4505b
x175y51=d04e58
x176y51=cb4953
x1y52=b65e6e
x2y52=aa5767
x3y52=964e5c
x4y52=8f5a64
x5y52=76575c
x6y52=605051
x7y52=554b4c
x8y52=4c4646
x9y52=4b4545
x10y52=403c3b
x11y52=44403f
x12y52=433f3e
x13y52=3f3b3a
x14y52=3a3633
x15y52=37322f
x16y52=37322e
x17y52=34312c
x18y52=44413c
x19y52=383530
x20y52=2f2c27
x21y52=302d28
x22y52=2d2a25
x23y52=2a2720
x24y52=2a2720
x25y52=2a2720
x26y52=2c2922
x27y52=26231c
x28y52=28251e
x29y52=27241f
x30y52=221f1a
x31y52=27241f
x32y52=2d2a25
x33y52=23221d
x34y52=21201b
x35y52=23201b
x36y52=211e19
x37y52=221f1a
x38y52=23201b
x39y52=22211c
x40y52=21201b
x41y52=1f1e19
x42y52=201f1a
x43y52=21201b
x44y52=201f1a
x45y52=23201b
x46y52=24211c
x47y52=25221d
x48y52=24211c
x49y52=282520
x50y52=221f1a
x51y52=221f1a
x52y52=23201b
x53y52=211e19
x54y52=1d1a15
x55y52=211e17
x56y52=211e17
x57y52=1f1c15
x58y52=221f18
x59y52=1d1a13
x60y52=1d1a13
x61y52=211e19
x62y52=201d18
x63y52=201d18
x64y52=201d18
x65y52=1f1c17
x66y52=1d1a15
x67y52=191813
x68y52=171611
x69y52=191813
x70y52=191813
x71y52=1c1914
x72y52=1d1a15
x73y52=211c18
x74y52=25201c
x75y52=26231e
x76y52=3f3c35
x77y52=514a44
x78y52=625b53
x79y52=524741
x80y52=342b24
x81y52=312821
x82y52=322b23
x83y52=362c23
x84y52=392f26
x85y52=352820
x86y52=32251d
x87y52=30261d
x88y52=2d231a
x89y52=2e241b
x90y52=32281f
x91y52=2e241b
x92y52=2a2017
x93y52=261d16
x94y52=271e17
x95y52=2a211a
x96y52=281f18
x97y52=29221c
x98y52=2c251f
x99y52=322b25
x100y52=29241e
x101y52=2d2822
x102y52=302d26
x103y52=221f1a
x104y52=25221d
x105y52=31302c
x106y52=2b2a26
x107y52=25211e
x108y52=403c39
x109y52=37342f
x110y52=383530
x111y52=2b2823
x112y52=24211a
x113y52=1a1710
x114y52=1b1811
x115y52=15140f
x116y52=151410
x117y52=12110d
x118y52=100f0b
x119y52=12110c
x120y52=100f0a
x121y52=17140d
x122y52=342f29
x123y52=3e372f
x124y52=393027
x125y52=4d4037
x126y52=514539
x127y52=63594f
x128y52=645b52
x129y52=453c35
x130y52=29221c
x131y52=1c1411
x132y52=35302c
x133y52=57524e
x134y52=68635f
x135y52=817977
x136y52=5d4447
x137y52=4e1a1e
x138y52=bd6b71
x139y52=e06c77
x140y52=eb6472
x141y52=eb6170
x142y52=ef6272
x143y52=ee626f
x144y52=ee626f
x145y52=ec6271
x146y52=e95f6e
x147y52=ed6372
x148y52=f06675
x149y52=f06675
x150y52=ec6271
x151y52=ef6574
x152y52=f46a79
x153y52=ee6473
x154y52=ea6270
x155y52=e9616f
x156y52=e25a68
x157y52=dc5661
x158y52=c6404b
x159y52=c6404b
x160y52=d14b54
x161y52=d7515a
x162y52=d14a51
x163y52=cb444b
x164y52=ca444b
x165y52=c84249
x166y52=cd484d
x167y52=cf4950
x168y52=d54f56
x169y52=d5525a
x170y52=d45159
x171y52=d7515c
x172y52=d5515c
x173y52=d14f59
x174y52=d14f59
x175y52=cb4c55
x176y52=c84952
x1y53=b65b6d
x2y53=ae5b6b
x3y53=995a65
x4y53=6c4148
x5y53=533a3d
x6y53=4d3f3f
x7y53=4e4445
x8y53=4e4848
x9y53=4b4746
x10y53=464543
x11y53=4e4848
x12y53=3f3939
x13y53=37322f
x14y53=37322f
x15y53=3a3532
x16y53=35302d
x17y53=2e2b26
x18y53=2f2c27
x19y53=2a2722
x20y53=2d2a25
x21y53=312e29
x22y53=2f2c27
x23y53=2c2b26
x24y53=282722
x25y53=2a2924
x26y53=292823
x27y53=272621
x28y53=272621
x29y53=22211c
x30y53=25241f
x31y53=201f1a
x32y53=1f1e19
x33y53=25241f
x34y53=22211c
x35y53=201f1a
x36y53=23221d
x37y53=201f1a
x38y53=1f1e19
x39y53=1d1c17
x40y53=201f1a
x41y53=201f1a
x42y53=1f1e19
x43y53=1e1f19
x44y53=20211b
x45y53=201f1a
x46y53=21201b
x47y53=22211c
x48y53=23221d
x49y53=2b2823
x50y53=27241f
x51y53=1f1c17
x52y53=221f1a
x53y53=211e19
x54y53=23201b
x55y53=201d16
x56y53=211e17
x57y53=211e17
x58y53=201d16
x59y53=25221b
x60y53=24211a
x61y53=201d18
x62y53=1f1c17
x63y53=201d18
x64y53=24211c
x65y53=1e1b16
x66y53=1d1a15
x67y53=1a1914
x68y53=191813
x69y53=171611
x70y53=161510
x71y53=1a1712
x72y53=191611
x73y53=1c1914
x74y53=1d1a15
x75y53=1d1a13
x76y53=2f2c25
x77y53=47403a
x78y53=4d463e
x79y53=3f342e
x80y53=342b22
x81y53=433a31
x82y53=342d23
x83y53=352b22
x84y53=342a21
x85y53=33261e
x86y53=33261e
x87y53=2f221a
x88y53=32251d
x89y53=2f251c
x90y53=30261d
x91y53=2a2017
x92y53=2b2118
x93y53=291e18
x94y53=30251f
x95y53=2a211a
x96y53=2c231c
x97y53=241d17
x98y53=27201a
x99y53=241f19
x100y53=231e18
x101y53=433e3a
x102y53=2f2c27
x103y53=322f2a
x104y53=41403b
x105y53=363531
x106y53=33322e
x107y53=2b2a26
x108y53=1d1c18
x109y53=23201b
x110y53=3b3833
x111y53=4a4740
x112y53=3a3730
x113y53=28251e
x114y53=1a1710
x115y53=171611
x116y53=13140e
x117y53=11120d
x118y53=0f100b
x119y53=12130d
x120y53=11120c
x121y53=181712
x122y53=333029
x123y53=342d25
x124y53=433a31
x125y53=4f4239
x126y53=584b42
x127y53=796f66
x128y53=797067
x129y53=373028
x130y53=201b15
x131y53=1d1814
x132y53=47443f
x133y53=716d6a
x134y53=726a68
x135y53=584646
x136y53=4a1d20
x137y53=b0565f
x138y53=e16d78
x139y53=ed6d7a
x140y53=f06977
x141y53=ef6574
x142y53=f16474
x143y53=ef6171
x144y53=f06272
x145y53=ee6171
x146y53=ec6271
x147y53=ef6574
x148y53=f16776
x149y53=ee6473
x150y53=ec6271
x151y53=ef6574
x152y53=ef6574
x153y53=ed6573
x154y53=e75f6d
x155y53=e9616d
x156y53=df5964
x157y53=d74f5b
x158y53=c9414d
x159y53=c8404a
x160y53=ce4851
x161y53=d34d56
x162y53=d24a54
x163y53=cb434d
x164y53=ca434a
x165y53=c94249
x166y53=cd464d
x167y53=ce4650
x168y53=d24c55
x169y53=d34f5a
x170y53=d3515b
x171y53=d34f5c
x172y53=d34f5c
x173y53=cf4d59
x174y53=cc4d58
x175y53=c64853
x176y53=c64853
x1y54=b25567
x2y54=ae5b6b
x3y54=9a5c67
x4y54=81585e
x5y54=604a4d
x6y54=4c4241
x7y54=4b4243
x8y54=453f3f
x9y54=3f3e3c
x10y54=4c4b49
x11y54=3f3939
x12y54=3b3535
x13y54=3d3835
x14y54=3c3734
x15y54=383330
x16y54=322d2a
x17y54=2f2c27
x18y54=2b2823
x19y54=2e2b26
x20y54=2d2a25
x21y54=2d2a25
x22y54=2c2924
x23y54=292823
x24y54=2c2b26
x25y54=282722
x26y54=2d2c27
x27y54=2c2b26
x28y54=2a2924
x29y54=2a2924
x30y54=22211c
x31y54=22211c
x32y54=23221d
x33y54=21201b
x34y54=1f1e19
x35y54=21201b
x36y54=201f1a
x37y54=1d1c17
x38y54=201f1a
x39y54=201f1a
x40y54=1f1e19
x41y54=1e1d18
x42y54=1f1e19
x43y54=1e1f19
x44y54=1f201a
x45y54=23221d
x46y54=24231e
x47y54=24231e
x48y54=24231e
x49y54=2e2b26
x50y54=36332e
x51y54=302d28
x52y54=292621
x53y54=23201b
x54y54=221f1a
x55y54=221f18
x56y54=24211a
x57y54=221f18
x58y54=221f18
x59y54=221f18
x60y54=221f18
x61y54=211e19
x62y54=201d18
x63y54=1f1c17
x64y54=221f1a
x65y54=26231e
x66y54=211e19
x67y54=1b1a15
x68y54=1a1914
x69y54=171611
x70y54=161510
x71y54=191611
x72y54=181510
x73y54=1a1712
x74y54=1b1813
x75y54=1f1c17
x76y54=25221b
x77y54=443d35
x78y54=423b33
x79y54=463c33
x80y54=3a3027
x81y54=342b22
x82y54=332a21
x83y54=372d24
x84y54=392f26
x85y54=31241c
x86y54=31241c
x87y54=30231b
x88y54=2f251c
x89y54=332920
x90y54=32281f
x91y54=32281f
x92y54=3c3229
x93y54=3d322c
x94y54=362b25
x95y54=2d241d
x96y54=2d241d
x97y54=2f2822
x98y54=2e2721
x99y54=29241e
x100y54=2a251f
x101y54=27241f
x102y54=36332e
x103y54=2f2e29
x104y54=24231e
x105y54=2a2925
x106y54=272622
x107y54=33322e
x108y54=2b2a26
x109y54=302d28
x110y54=2e2b26
x111y54=44413a
x112y54=37342d
x113y54=2d2a21
x114y54=333029
x115y54=272621
x116y54=1f201a
x117y54=151611
x118y54=151611
x119y54=12130d
x120y54=14150f
x121y54=1e1d18
x122y54=333029
x123y54=474038
x124y54=463b35
x125y54=52453d
x126y54=61544c
x127y54=756c63
x128y54=6b645a
x129y54=322b23
x130y54=221d17
x131y54=1c1914
x132y54=3b3833
x133y54=504846
x134y54=554140
x135y54=4e2124
x136y54=a65b60
x137y54=e26f7c
x138y54=f06978
x139y54=f16a78
x140y54=f26a78
x141y54=f26877
x142y54=f06373
x143y54=f36676
x144y54=f16474
x145y54=ef6574
x146y54=f36978
x147y54=f36978
x148y54=f26877
x149y54=ec6271
x150y54=ed6372
x151y54=ed6372
x152y54=e9616f
x153y54=eb6371
x154y54=e55e6c
x155y54=e45e69
x156y54=e05a65
x157y54=d74f5b
x158y54=ca424c
x159y54=c9414b
x160y54=d04852
x161y54=d24c55
x162y54=d34d56
x163y54=ce4650
x164y54=cb434d
x165y54=cc454c
x166y54=cc464d
x167y54=cd454f
x168y54=ce4851
x169y54=ce4c56
x170y54=d14f59
x171y54=d04c57
x172y54=ce4a57
x173y54=c94a55
x174y54=c74954
x175y54=c34751
x176y54=c54953
x1y55=b45968
x2y55=aa5665
x3y55=9e5765
x4y55=7f5058
x5y55=5c484a
x6y55=47423f
x7y55=433a3b
x8y55=413b3b
x9y55=403c3d
x10y55=3f3b3c
x11y55=3d3737
x12y55=3c3636
x13y55=373330
x14y55=37342f
x15y55=36312e
x16y55=302b28
x17y55=2f2b28
x18y55=282723
x19y55=2b2a25
x20y55=292823
x21y55=282722
x22y55=2c2b26
x23y55=2d2c27
x24y55=2c2b26
x25y55=2d2c27
x26y55=2a2924
x27y55=292823
x28y55=292823
x29y55=272621
x30y55=262520
x31y55=23221d
x32y55=22211c
x33y55=21221c
x34y55=1f201a
x35y55=23221d
x36y55=21201b
x37y55=201f1a
x38y55=1e1d18
x39y55=201f1a
x40y55=21201b
x41y55=21201b
x42y55=1e1d18
x43y55=1f201a
x44y55=1e1f19
x45y55=1c1d17
x46y55=1f201a
x47y55=292823
x48y55=282722
x49y55=2a2623
x50y55=2a2623
x51y55=2d2a25
x52y55=2a2722
x53y55=24211c
x54y55=201d18
x55y55=25221b
x56y55=201d16
x57y55=201d16
x58y55=1e1b14
x59y55=1f1c15
x60y55=201d16
x61y55=1d1a15
x62y55=221f1a
x63y55=201d18
x64y55=201d18
x65y55=25221d
x66y55=211e19
x67y55=191813
x68y55=181712
x69y55=171611
x70y55=181712
x71y55=181713
x72y55=191814
x73y55=171612
x74y55=181712
x75y55=191611
x76y55=232019
x77y55=3e372f
x78y55=49423a
x79y55=433930
x80y55=453b32
x81y55=3e342b
x82y55=3a3027
x83y55=3a3027
x84y55=3e342b
x85y55=32281f
x86y55=2d231a
x87y55=2b2118
x88y55=2c2219
x89y55=332920
x90y55=2d231a
x91y55=33261e
x92y55=352820
x93y55=2c211b
x94y55=2a1f19
x95y55=292019
x96y55=352e26
x97y55=312a24
x98y55=322b25
x99y55=302b25
x100y55=2e2923
x101y55=2d2a23
x102y55=2c2922
x103y55=2c2b26
x104y55=32312c
x105y55=31302b
x106y55=3f3e39
x107y55=403f3a
x108y55=393833
x109y55=36332e
x110y55=312e29
x111y55=413c36
x112y55=35302a
x113y55=2f2a24
x114y55=312c26
x115y55=32312c
x116y55=22211c
x117y55=1e1d18
x118y55=1a1914
x119y55=1a1b15
x120y55=1f201a
x121y55=2e2e26
x122y55=504d46
x123y55=504941
x124y55=3f342e
x125y55=584b45
x126y55=5e514b
x127y55=5d544d
x128y55=4f4840
x129y55=3e3731
x130y55=27221c
x131y55=2c2d27
x132y55=4d4a45
x133y55=5a4846
x134y55=4c2021
x135y55=a9545b
x136y55=e2737c
x137y55=ee707e
x138y55=f56e7d
x139y55=f76d7c
x140y55=f76d7a
x141y55=f36978
x142y55=f36b79
x143y55=ee6575
x144y55=f46b7b
x145y55=f16977
x146y55=f16977
x147y55=f46a79
x148y55=f46a79
x149y55=f06675
x150y55=ec6271
x151y55=e9616f
x152y55=e9616f
x153y55=e8606e
x154y55=e35c6a
x155y55=e05a65
x156y55=dd5964
x157y55=d7515a
x158y55=cd4750
x159y55=cb454e
x160y55=d24c53
x161y55=d44e55
x162y55=d34d54
x163y55=d04a51
x164y55=ca474d
x165y55=ca474d
x166y55=cb484e
x167y55=cc494f
x168y55=cc4b50
x169y55=cc4a52
x170y55=cc4d54
x171y55=cd4b53
x172y55=c84952
x173y55=c54850
x174y55=c3474f
x175y55=c44852
x176y55=c34a53
x1y56=b55b67
x2y56=ac5a66
x3y56=a65f6d
x4y56=8d5e68
x5y56=5f4c4e
x6y56=464241
x7y56=433d3d
x8y56=413b3b
x9y56=3c3839
x10y56=383435
x11y56=3a3635
x12y56=363231
x13y56=34302d
x14y56=312e29
x15y56=302d28
x16y56=2d2926
x17y56=2b2a26
x18y56=2b2a26
x19y56=292823
x20y56=282722
x21y56=282722
x22y56=282722
x23y56=292823
x24y56=282722
x25y56=272621
x26y56=2b2a25
x27y56=282722
x28y56=282722
x29y56=272621
x30y56=272621
x31y56=272621
x32y56=24231e
x33y56=21221c
x34y56=23241e
x35y56=22211c
x36y56=21201b
x37y56=23221d
x38y56=23221d
x39y56=201f1a
x40y56=201f1a
x41y56=21201b
x42y56=1f1e19
x43y56=22231d
x44y56=23241e
x45y56=24251f
x46y56=1d1e18
x47y56=23221d
x48y56=25241f
x49y56=2a2623
x50y56=302c29
x51y56=2f2c27
x52y56=2c2924
x53y56=2a2722
x54y56=25221d
x55y56=24211a
x56y56=221f18
x57y56=201d16
x58y56=201d16
x59y56=1f1c15
x60y56=201d16
x61y56=211e19
x62y56=1e1b16
x63y56=221f1a
x64y56=1d1a15
x65y56=1c1914
x66y56=201d18
x67y56=1a1914
x68y56=181712
x69y56=161510
x70y56=171611
x71y56=171612
x72y56=181713
x73y56=1a1915
x74y56=1b1a16
x75y56=1b1813
x76y56=1d1a13
x77y56=3a332d
x78y56=423b33
x79y56=463c33
x80y56=4f453c
x81y56=4a4037
x82y56=362c23
x83y56=382e25
x84y56=332920
x85y56=2e241b
x86y56=2b2118
x87y56=281f16
x88y56=261d14
x89y56=271d14
x90y56=2b2118
x91y56=3f322a
x92y56=34271f
x93y56=362b25
x94y56=332a23
x95y56=322922
x96y56=221b13
x97y56=211a14
x98y56=1f1812
x99y56=201b15
x100y56=201b15
x101y56=211c16
x102y56=27241d
x103y56=2f2c27
x104y56=33322d
x105y56=2e2d28
x106y56=272621
x107y56=282722
x108y56=272621
x109y56=2b2823
x110y56=484540
x111y56=433e38
x112y56=39342e
x113y56=433c36
x114y56=38332d
x115y56=2f2c27
x116y56=21201b
x117y56=201f1a
x118y56=24231e
x119y56=272822
x120y56=30312b
x121y56=47473f
x122y56=5a5750
x123y56=413a32
x124y56=584d47
x125y56=60534d
x126y56=5c4f47
x127y56=675e55
x128y56=4a433b
x129y56=453c37
x130y56=271f1c
x131y56=45423d
x132y56=5a4c49
x133y56=4d2525
x134y56=9a5256
x135y56=e3717b
x136y56=f16d7a
x137y56=f56e7f
x138y56=f86f7f
x139y56=f66c7b
x140y56=f76d7c
x141y56=f66e7c
x142y56=ee6575
x143y56=f36a7a
x144y56=f56c7c
x145y56=f46b7b
x146y56=f46c7a
x147y56=f96f7e
x148y56=ed6372
x149y56=ea606f
x150y56=e85e6d
x151y56=e8606e
x152y56=e75f6d
x153y56=e55e6c
x154y56=de5a67
x155y56=de5a65
x156y56=da5661
x157y56=d14d58
x158y56=d04d55
x159y56=d14b54
x160y56=d04a51
x161y56=d04a51
x162y56=d04a51
x163y56=cf4c52
x164y56=ce4b51
x165y56=c9484d
x166y56=cd4c51
x167y56=cc4b50
x168y56=cb4d51
x169y56=cb4951
x170y56=ca4b52
x171y56=ca4b52
x172y56=c7484f
x173y56=c3464e
x174y56=bf464d
x175y56=bd4850
x176y56=bc4950
x1y57=b9616d
x2y57=b1646e
x3y57=9e626c
x4y57=825a62
x5y57=544447
x6y57=433f40
x7y57=433f40
x8y57=3c3839
x9y57=3b3a38
x10y57=393836
x11y57=393836
x12y57=363231
x13y57=34302d
x14y57=312e29
x15y57=2c2b26
x16y57=2a2b25
x17y57=292824
x18y57=2a2925
x19y57=292824
x20y57=272622
x21y57=272621
x22y57=272621
x23y57=282722
x24y57=272621
x25y57=282722
x26y57=272621
x27y57=292823
x28y57=272621
x29y57=272621
x30y57=262520
x31y57=262520
x32y57=24231e
x33y57=24231e
x34y57=23221d
x35y57=22211c
x36y57=23221d
x37y57=23221d
x38y57=21201b
x39y57=252420
x40y57=22211d
x41y57=252420
x42y57=23221e
x43y57=22211c
x44y57=21201b
x45y57=272621
x46y57=373631
x47y57=31302b
x48y57=2f2e29
x49y57=34312c
x50y57=36332e
x51y57=2d2a25
x52y57=27241f
x53y57=23201b
x54y57=221f1a
x55y57=232019
x56y57=221f18
x57y57=232019
x58y57=211e17
x59y57=1f1c15
x60y57=211e17
x61y57=1f1c17
x62y57=1c1914
x63y57=211e19
x64y57=1c1914
x65y57=1e1915
x66y57=1d1a15
x67y57=1b1a15
x68y57=171611
x69y57=171612
x70y57=181713
x71y57=1c1b17
x72y57=1b1a16
x73y57=1b1a16
x74y57=1d1c18
x75y57=1b1813
x76y57=1f1c15
x77y57=302923
x78y57=433c34
x79y57=453b32
x80y57=493f36
x81y57=42382f
x82y57=3c3229
x83y57=392f26
x84y57=30261d
x85y57=2e251c
x86y57=2e251c
x87y57=2a2118
x88y57=281f16
x89y57=271e15
x90y57=382f26
x91y57=392f26
x92y57=372d24
x93y57=2d231a
x94y57=261d14
x95y57=231a13
x96y57=221b13
x97y57=201913
x98y57=1f1812
x99y57=201913
x100y57=1b1610
x101y57=1f1a14
x102y57=1f1c15
x103y57=1d1a13
x104y57=18150e
x105y57=23201b
x106y57=2d2a25
x107y57=312e29
x108y57=3b3833
x109y57=36332e
x110y57=2a2722
x111y57=342f29
x112y57=39342e
x113y57=312a24
x114y57=39342e
x115y57=2a2722
x116y57=26231e
x117y57=292824
x118y57=2c2b27
x119y57=474642
x120y57=45443f
x121y57=414139
x122y57=4e4b44
x123y57=39322a
x124y57=564d46
x125y57=6b6158
x126y57=70665c
x127y57=787065
x128y57=615a50
x129y57=554e48
x130y57=261c1a
x131y57=3c312d
x132y57=53312f
x133y57=9b4f4f
x134y57=dc7177
x135y57=f0707f
x136y57=f76e80
x137y57=f87182
x138y57=fb7485
x139y57=f86f7f
x140y57=f97080
x141y57=f86f7f
x142y57=f56c7c
x143y57=f26878
x144y57=f56b7b
x145y57=fd7383
x146y57=f86f7f
x147y57=ed6474
x148y57=ec6373
x149y57=ee6473
x150y57=e65c6b
x151y57=e65e6c
x152y57=e35b69
x153y57=e15a68
x154y57=dc5865
x155y57=da5663
x156y57=d5535d
x157y57=d5535d
x158y57=d14f57
x159y57=d14e56
x160y57=d04d55
x161y57=d04a51
x162y57=d04a51
x163y57=d04d53
x164y57=cd4c51
x165y57=ce4b53
x166y57=cf4d55
x167y57=cd4e55
x168y57=cb4c53
x169y57=cd4b55
x170y57=cc4a54
x171y57=c7454f
x172y57=c64750
x173y57=c2434e
x174y57=bf4750
x175y57=b94f53
x176y57=9e3a3c
x1y58=c0818c
x2y58=9b626b
x3y58=8d6269
x4y58=694c50
x5y58=514545
x6y58=423e3d
x7y58=3a3637
x8y58=403c3b
x9y58=373634
x10y58=353432
x11y58=302f2d
x12y58=302f2d
x13y58=2c2825
x14y58=2a2925
x15y58=292a24
x16y58=282923
x17y58=282723
x18y58=292824
x19y58=2b2a26
x20y58=2b2a26
x21y58=282722
x22y58=272621
x23y58=282722
x24y58=282722
x25y58=282722
x26y58=282722
x27y58=25241f
x28y58=25241f
x29y58=24231e
x30y58=262520
x31y58=25241f
x32y58=25241f
x33y58=24231e
x34y58=21201b
x35y58=23221d
x36y58=1e1d18
x37y58=201f1a
x38y58=21201b
x39y58=24231f
x40y58=21201c
x41y58=262521
x42y58=252420
x43y58=272621
x44y58=23221d
x45y58=262520
x46y58=2e2d28
x47y58=22211c
x48y58=1f1e19
x49y58=201d18
x50y58=25221d
x51y58=282520
x52y58=2b2823
x53y58=302d28
x54y58=2a2722
x55y58=29261f
x56y58=27241d
x57y58=26231c
x58y58=221f18
x59y58=1c1912
x60y58=211e17
x61y58=1f1c17
x62y58=1d1a15
x63y58=1e1b16
x64y58=1d1a15
x65y58=201b17
x66y58=1c1713
x67y58=1e1b16
x68y58=1a1914
x69y58=161511
x70y58=181713
x71y58=191814
x72y58=1d1c18
x73y58=1d1c18
x74y58=181713
x75y58=1f1c17
x76y58=1e1b14
x77y58=28211b
x78y58=373028
x79y58=453b32
x80y58=483e35
x81y58=433930
x82y58=40362d
x83y58=362c23
x84y58=2f251c
x85y58=2e241b
x86y58=2f261d
x87y58=2c231a
x88y58=2a2118
x89y58=31281f
x90y58=342b22
x91y58=30261d
x92y58=281e15
x93y58=22180f
x94y58=271e15
x95y58=221912
x96y58=221b13
x97y58=241d17
x98y58=1e1711
x99y58=221b15
x100y58=221b15
x101y58=211a14
x102y58=25201a
x103y58=1d1812
x104y58=1e1b14
x105y58=1d1a15
x106y58=1e1b16
x107y58=1e1b16
x108y58=1b1813
x109y58=181510
x110y58=1e1b16
x111y58=26211b
x112y58=35302a
x113y58=2e2923
x114y58=2c2721
x115y58=34312c
x116y58=25241f
x117y58=2c2b27
x118y58=373632
x119y58=53524e
x120y58=595854
x121y58=63625d
x122y58=5d5a53
x123y58=3f3a34
x124y58=6a635b
x125y58=837a71
x126y58=898176
x127y58=878175
x128y58=6c665a
x129y58=463d38
x130y58=2a1816
x131y58=4c2927
x132y58=87494a
x133y58=d77074
x134y58=f2737e
x135y58=f97283
x136y58=f76e82
x137y58=fc7385
x138y58=fc7586
x139y58=fa7183
x140y58=f97082
x141y58=fa7183
x142y58=f76e7e
x143y58=f76a7a
x144y58=f66979
x145y58=f86e7e
x146y58=f26979
x147y58=ec6373
x148y58=e75e6e
x149y58=e8606e
x150y58=e45c6a
x151y58=e15967
x152y58=de5765
x153y58=db5764
x154y58=d85461
x155y58=d85662
x156y58=d4525e
x157y58=d3515b
x158y58=d24e59
x159y58=d45159
x160y58=d24f57
x161y58=d04a53
x162y58=cf4950
x163y58=cd4a50
x164y58=cd4a50
x165y58=d14e56
x166y58=cf4c54
x167y58=cc4d54
x168y58=cb4c53
x169y58=cb4951
x170y58=ca4852
x171y58=c7454f
x172y58=c0434b
x173y58=c0444e
x174y58=bc4b51
x175y58=ab4b4d
x176y58=7c2423
x1y59=cdb7c3
x2y59=a8959b
x3y59=625253
x4y59=534846
x5y59=4d4542
x6y59=413d3a
x7y59=3d3737
x8y59=3e3838
x9y59=383433
x10y59=353430
x11y59=2f302b
x12y59=2d2e29
x13y59=2a2a28
x14y59=282924
x15y59=282924
x16y59=2a2925
x17y59=2a2925
x18y59=282723
x19y59=292824
x20y59=2a2925
x21y59=262521
x22y59=282723
x23y59=282722
x24y59=292823
x25y59=292823
x26y59=292823
x27y59=272621
x28y59=24231e
x29y59=262520
x30y59=24231e
x31y59=23221d
x32y59=22211c
x33y59=21201b
x34y59=21201b
x35y59=23221d
x36y59=201f1a
x37y59=23221e
x38y59=21201c
x39y59=22211d
x40y59=22211d
x41y59=22211d
x42y59=262521
x43y59=282723
x44y59=1f1e1a
x45y59=21201b
x46y59=24231e
x47y59=2b2823
x48y59=24211c
x49y59=25201c
x50y59=231e1a
x51y59=241f1b
x52y59=2e2925
x53y59=302d26
x54y59=35322b
x55y59=26231c
x56y59=25221b
x57y59=211e17
x58y59=24211a
x59y59=25221b
x60y59=232019
x61y59=211e17
x62y59=201d16
x63y59=1e1b14
x64y59=1d1a13
x65y59=201b17
x66y59=1d1814
x67y59=1e1b16
x68y59=1d1a15
x69y59=161510
x70y59=1a1914
x71y59=1e1a17
x72y59=201c19
x73y59=211d1a
x74y59=211d1a
x75y59=1f1c17
x76y59=19160f
x77y59=241d17
x78y59=3b342c
x79y59=4f453c
x80y59=483e35
x81y59=41382f
x82y59=4c4239
x83y59=3c3229
x84y59=372a22
x85y59=392c24
x86y59=332920
x87y59=2f261d
x88y59=2b2219
x89y59=282117
x90y59=261f15
x91y59=342b22
x92y59=31281f
x93y59=3a3128
x94y59=281f16
x95y59=221910
x96y59=251c13
x97y59=271e17
x98y59=292019
x99y59=261d16
x100y59=251e16
x101y59=251e16
x102y59=211d14
x103y59=1c1711
x104y59=1a150f
x105y59=1b1610
x106y59=1b1610
x107y59=1b1612
x108y59=191410
x109y59=1b1610
x110y59=1a150f
x111y59=26211b
x112y59=2d2822
x113y59=322f28
x114y59=2c2922
x115y59=2b2b23
x116y59=302f2a
x117y59=282723
x118y59=2c2d28
x119y59=363634
x120y59=626260
x121y59=656460
x122y59=5d5c57
x123y59=56534e
x124y59=85807a
x125y59=9c9791
x126y59=918d84
x127y59=7d796d
x128y59=6d675b
x129y59=4e433d
x130y59=391a17
x131y59=833b3c
x132y59=d67177
x133y59=f17784
x134y59=f77283
x135y59=fc7586
x136y59=ff7889
x137y59=ff7889
x138y59=fe7587
x139y59=fb7085
x140y59=fc7186
x141y59=fe7585
x142y59=fb7381
x143y59=fc6f7f
x144y59=f46777
x145y59=ee6474
x146y59=ea6171
x147y59=e8606e
x148y59=e35b69
x149y59=e15967
x150y59=dc5563
x151y59=d95562
x152y59=d95562
x153y59=d65460
x154y59=d5535f
x155y59=d3515d
x156y59=cf4d59
x157y59=d14d58
x158y59=d54f5a
x159y59=d6505b
x160y59=d14b56
x161y59=d54f5a
x162y59=d34d56
x163y59=cd4750
x164y59=d14b54
x165y59=cf4952
x166y59=d14e56
x167y59=ce4d52
x168y59=c94b4f
x169y59=c6484c
x170y59=c3464c
x171y59=c4474f
x172y59=c0474e
x173y59=bc4950
x174y59=b34c50
x175y59=873132
x176y59=712321
x1y60=bdc3d1
x2y60=9c9eaa
x3y60=515153
x4y60=41403e
x5y60=46433e
x6y60=403d38
x7y60=3e3936
x8y60=383232
x9y60=34302d
x10y60=302f2b
x11y60=2f302b
x12y60=2f312c
x13y60=252724
x14y60=292927
x15y60=282723
x16y60=292824
x17y60=292824
x18y60=262521
x19y60=272622
x20y60=292824
x21y60=282723
x22y60=2b2a26
x23y60=282722
x24y60=262520
x25y60=23221d
x26y60=24231e
x27y60=262520
x28y60=25241f
x29y60=272621
x30y60=24231e
x31y60=24231e
x32y60=24231e
x33y60=23221d
x34y60=25241f
x35y60=201f1a
x36y60=201f1a
x37y60=24231f
x38y60=21201c
x39y60=21201c
x40y60=24231f
x41y60=22211d
x42y60=22211d
x43y60=22211d
x44y60=21201c
x45y60=2c2b26
x46y60=272621
x47y60=25221d
x48y60=45423d
x49y60=26211d
x50y60=342f2b
x51y60=342f2b
x52y60=302b27
x53y60=2e2b24
x54y60=2f2c25
x55y60=302d26
x56y60=302d26
x57y60=2e2b24
x58y60=28251e
x59y60=25221b
x60y60=201d16
x61y60=221f18
x62y60=232019
x63y60=201d16
x64y60=1d1a13
x65y60=221d19
x66y60=1d1814
x67y60=191611
x68y60=1b1813
x69y60=161510
x70y60=161510
x71y60=1e1a17
x72y60=231f1c
x73y60=211d1a
x74y60=221f1a
x75y60=211e19
x76y60=201d16
x77y60=1f1810
x78y60=342d25
x79y60=594f46
x80y60=443a31
x81y60=5a5148
x82y60=5e544b
x83y60=54473f
x84y60=44372f
x85y60=3c2f27
x86y60=352b22
x87y60=332920
x88y60=281f16
x89y60=231c12
x90y60=231c12
x91y60=2d241b
x92y60=292017
x93y60=271e15
x94y60=2c231a
x95y60=2b2219
x96y60=271e15
x97y60=2d241d
x98y60=312821
x99y60=281f18
x100y60=352c25
x101y60=292019
x102y60=29221a
x103y60=241d17
x104y60=231e18
x105y60=241f19
x106y60=2b2620
x107y60=2b2622
x108y60=241f1b
x109y60=29241e
x110y60=302b25
x111y60=2a251f
x112y60=211e17
x113y60=28251e
x114y60=25251d
x115y60=282820
x116y60=27271f
x117y60=2a2924
x118y60=292824
x119y60=2e2d2b
x120y60=5f5e5c
x121y60=6b6764
x122y60=5e5b56
x123y60=74716c
x124y60=b4b1ac
x125y60=afaca5
x126y60=95928b
x127y60=7f7b70
x128y60=7a6d64
x129y60=614541
x130y60=612b29
x131y60=cb686d
x132y60=f27681
x133y60=fc798b
x134y60=ff7a8e
x135y60=ff7a8d
x136y60=fe798a
x137y60=fe7788
x138y60=fd7687
x139y60=ff7489
x140y60=ff7588
x141y60=fd7583
x142y60=f66e7c
x143y60=f56b7a
x144y60=ee6473
x145y60=e85f6f
x146y60=e96271
x147y60=e45d6b
x148y60=d95260
x149y60=d5515e
x150y60=d5535f
x151y60=d75863
x152y60=d3545f
x153y60=d0515c
x154y60=cd4e59
x155y60=c94a55
x156y60=c84954
x157y60=cd4b55
x158y60=cb4752
x159y60=cc4853
x160y60=d04c57
x161y60=cb4752
x162y60=d04c57
x163y60=d04d55
x164y60=cf4c54
x165y60=cf4c54
x166y60=ce4b53
x167y60=cc4a52
x168y60=c84a4e
x169y60=c24549
x170y60=c0454a
x171y60=be454c
x172y60=bb4a50
x173y60=b44f53
x174y60=953c3e
x175y60=6f2323
x176y60=692321
x1y61=c0cfe6
x2y61=b1bcce
x3y61=555964
x4y61=3d3e42
x5y61=3f3f3f
x6y61=403f3b
x7y61=3e3d39
x8y61=383431
x9y61=312c29
x10y61=312c29
x11y61=2f2e2a
x12y61=2a2b26
x13y61=292927
x14y61=282826
x15y61=282725
x16y61=292826
x17y61=292824
x18y61=272622
x19y61=252420
x20y61=262521
x21y61=262521
x22y61=2a2925
x23y61=272622
x24y61=262521
x25y61=262520
x26y61=25241f
x27y61=24231e
x28y61=282722
x29y61=23221d
x30y61=24231e
x31y61=22211c
x32y61=22211c
x33y61=23221d
x34y61=25241f
x35y61=201f1a
x36y61=21201b
x37y61=252420
x38y61=22211d
x39y61=1f201b
x40y61=1d1e19
x41y61=21221d
x42y61=20211c
x43y61=22211d
x44y61=272622
x45y61=2b2823
x46y61=33302b
x47y61=3f3c37
x48y61=403d38
x49y61=3d3832
x50y61=2b2620
x51y61=312c26
x52y61=39342e
x53y61=2b2821
x54y61=27241d
x55y61=33302b
x56y61=2d2a25
x57y61=27241d
x58y61=232019
x59y61=211e17
x60y61=232019
x61y61=211e17
x62y61=25221b
x63y61=201d16
x64y61=201d16
x65y61=201b17
x66y61=1f1a16
x67y61=1c1914
x68y61=191611
x69y61=191611
x70y61=1a1712
x71y61=1e1b16
x72y61=201d18
x73y61=23201b
x74y61=23201b
x75y61=201d18
x76y61=1f1c15
x77y61=1f1810
x78y61=423b33
x79y61=584e45
x80y61=594f46
x81y61=6c6259
x82y61=635950
x83y61=4d4038
x84y61=52453d
x85y61=453830
x86y61=3b3128
x87y61=32281f
x88y61=2b2219
x89y61=251e14
x90y61=1c150b
x91y61=352c23
x92y61=292017
x93y61=2b2118
x94y61=2b2118
x95y61=392f26
x96y61=2e241b
x97y61=332822
x98y61=50453f
x99y61=281e15
x100y61=332920
x101y61=342a21
x102y61=342b22
x103y61=312821
x104y61=302921
x105y61=403933
x106y61=4a433d
x107y61=312c26
x108y61=2c2721
x109y61=221d17
x110y61=221d17
x111y61=211c16
x112y61=25221b
x113y61=28251c
x114y61=232319
x115y61=232017
x116y61=27241b
x117y61=2e2b24
x118y61=282520
x119y61=2e2b26
x120y61=403b37
x121y61=6a625f
x122y61=7b746e
x123y61=3f3a34
x124y61=918c86
x125y61=96938e
x126y61=8f8a84
x127y61=79726a
x128y61=785f5a
x129y61=793f3d
x130y61=bf696c
x131y61=e97580
x132y61=fd7a8a
x133y61=ff7b8e
x134y61=ff7c8f
x135y61=ff7a8d
x136y61=fe798a
x137y61=ff788c
x138y61=fd7687
x139y61=fe7788
x140y61=ff7988
x141y61=f9717d
x142y61=ef6773
x143y61=ee6674
x144y61=eb6272
x145y61=de5a67
x146y61=db5764
x147y61=d75561
x148y61=d2505c
x149y61=d0515a
x150y61=cd5058
x151y61=cb4f57
x152y61=c74b53
x153y61=c74b55
x154y61=c74b55
x155y61=c24650
x156y61=bf434d
x157y61=c0444e
x158y61=c1434e
x159y61=c34550
x160y61=c34550
x161y61=c94c54
x162y61=c64951
x163y61=c74a52
x164y61=c54850
x165y61=c64750
x166y61=c7454d
x167y61=c4454c
x168y61=c14249
x169y61=c4474d
x170y61=bd4449
x171y61=be4b50
x172y61=b44d50
x173y61=964240
x174y61=6f2522
x175y61=6c2624
x176y61=6d2928
x1y62=bfd4ef
x2y62=c2d4ec
x3y62=bac7d8
x4y62=6e7681
x5y62=383d41
x6y62=404143
x7y62=383836
x8y62=302f2b
x9y62=2e2a27
x10y62=2e2a27
x11y62=2a2925
x12y62=2b2c27
x13y62=262624
x14y62=272725
x15y62=282725
x16y62=242321
x17y62=252420
x18y62=282723
x19y62=282723
x20y62=282723
x21y62=282723
x22y62=282723
x23y62=252420
x24y62=23221e
x25y62=262520
x26y62=23221d
x27y62=23221d
x28y62=272621
x29y62=23221d
x30y62=25241f
x31y62=25241f
x32y62=24231e
x33y62=24231e
x34y62=21201b
x35y62=22211c
x36y62=201f1a
x37y62=23221e
x38y62=201f1b
x39y62=1e1f1a
x40y62=1e1f1a
x41y62=20211c
x42y62=1d1e19
x43y62=22211d
x44y62=272622
x45y62=2f2c27
x46y62=2a2722
x47y62=35322d
x48y62=47443f
x49y62=4c4741
x50y62=36312b
x51y62=332e28
x52y62=2d2822
x53y62=2c2922
x54y62=25221b
x55y62=23201b
x56y62=23201b
x57y62=25221b
x58y62=211e17
x59y62=1f1c15
x60y62=211e17
x61y62=201d16
x62y62=232019
x63y62=221f18
x64y62=211e17
x65y62=221d19
x66y62=1f1a16
x67y62=201d18
x68y62=1c1914
x69y62=1d1a15
x70y62=1c1914
x71y62=1c1914
x72y62=221f1a
x73y62=23201b
x74y62=25221d
x75y62=26231c
x76y62=221f18
x77y62=261f17
x78y62=504941
x79y62=6a6057
x80y62=5e544b
x81y62=635950
x82y62=54473f
x83y62=5f524a
x84y62=51443c
x85y62=41342c
x86y62=382e25
x87y62=2f261d
x88y62=271e15
x89y62=231c12
x90y62=31281f
x91y62=31281f
x92y62=2c2219
x93y62=2d231a
x94y62=372d24
x95y62=3e342b
x96y62=31271e
x97y62=30251f
x98y62=453a34
x99y62=3c3229
x100y62=30261d
x101y62=3b3128
x102y62=42382f
x103y62=362d26
x104y62=3d342d
x105y62=4c433e
x106y62=48413b
x107y62=2b241e
x108y62=201b15
x109y62=2e2923
x110y62=1f1a14
x111y62=1e1913
x112y62=211c16
x113y62=201d14
x114y62=1c1910
x115y62=1f1b10
x116y62=252116
x117y62=2b271e
x118y62=302921
x119y62=322b23
x120y62=3c332c
x121y62=4c413b
x122y62=6c6259
x123y62=5b524b
x124y62=463f37
x125y62=847d77
x126y62=8a837d
x127y62=7e716b
x128y62=7b5a55
x129y62=ac6465
x130y62=db767a
x131y62=f67a85
x132y62=ff7889
x133y62=ff788c
x134y62=ff798d
x135y62=fe798c
x136y62=ff7889
x137y62=fd7589
x138y62=ff7889
x139y62=fe7786
x140y62=f8717f
x141y62=eb6772
x142y62=e6626d
x143y62=e35c6a
x144y62=d85462
x145y62=cf505b
x146y62=ca4c57
x147y62=c84a55
x148y62=c24650
x149y62=c3474f
x150y62=c24950
x151y62=c0474e
x152y62=be474d
x153y62=c04851
x154y62=ba454d
x155y62=b8434b
x156y62=b9464d
x157y62=b7444b
x158y62=b5444a
x159y62=b6454b
x160y62=b14248
x161y62=b4454b
x162y62=b2454a
x163y62=b2484c
x164y62=b2484c
x165y62=b0454b
x166y62=b4494f
x167y62=b3484e
x168y62=b2494d
x169y62=b24b4f
x170y62=b24f52
x171y62=ab5151
x172y62=8e3e3d
x173y62=6d2926
x174y62=632824
x175y62=622723
x176y62=662c28
x1y63=bbd7ed
x2y63=bcd7ec
x3y63=bfd5ec
x4y63=bbcedf
x5y63=919da9
x6y63=444b53
x7y63=323335
x8y63=2d2c2a
x9y63=2b2c27
x10y63=2c2d28
x11y63=2b2b29
x12y63=292b28
x13y63=292b26
x14y63=252722
x15y63=262722
x16y63=24231f
x17y63=272823
x18y63=282924
x19y63=272823
x20y63=282924
x21y63=262722
x22y63=252621
x23y63=262722
x24y63=242520
x25y63=22231e
x26y63=1f201b
x27y63=23241e
x28y63=22231d
x29y63=23241e
x30y63=22231d
x31y63=23241e
x32y63=21221c
x33y63=21201b
x34y63=21201b
x35y63=22211c
x36y63=23221d
x37y63=22231e
x38y63=1f201b
x39y63=1c1d18
x40y63=1d1e19
x41y63=21221d
x42y63=22231e
x43y63=2a2b26
x44y63=2d2c28
x45y63=312e29
x46y63=43403b
x47y63=3f3a36
x48y63=3b3632
x49y63=3d3832
x50y63=3a352f
x51y63=312c26
x52y63=302b25
x53y63=2b2821
x54y63=29261f
x55y63=26231e
x56y63=211e19
x57y63=23201b
x58y63=211e19
x59y63=1e1b14
x60y63=201d16
x61y63=211e17
x62y63=1f1c15
x63y63=221f16
x64y63=232017
x65y63=231e18
x66y63=231e18
x67y63=24211a
x68y63=1e1b14
x69y63=1d1a13
x70y63=1c1912
x71y63=1f1a14
x72y63=231e18
x73y63=26231c
x74y63=28251e
x75y63=26231c
x76y63=27241d
x77y63=29221a
x78y63=3f3830
x79y63=5c5249
x80y63=675d54
x81y63=594c44
x82y63=655850
x83y63=564941
x84y63=44372f
x85y63=41372e
x86y63=31271e
x87y63=2f261d
x88y63=2d241b
x89y63=2d241b
x90y63=3f362d
x91y63=32281f
x92y63=30231b
x93y63=2f221a
x94y63=2b2118
x95y63=2a2017
x96y63=281e15
x97y63=271d14
x98y63=2a1d15
x99y63=291c14
x100y63=2b1e16
x101y63=32281f
x102y63=362c23
x103y63=372d24
x104y63=41382f
x105y63=4b423b
x106y63=322b23
x107y63=2f2822
x108y63=352e28
x109y63=241f19
x110y63=322d27
x111y63=1a1710
x112y63=1e1913
x113y63=241d17
x114y63=29221a
x115y63=2c231a
x116y63=2f251b
x117y63=2c2218
x118y63=30261a
x119y63=36281d
x120y63=443427
x121y63=463428
x122y63=58483b
x123y63=65574c
x124y63=70665c
x125y63=7b7168
x126y63=71645c
x127y63=6e5b55
x128y63=936d6a
x129y63=c68080
x130y63=dc797c
x131y63=f17782
x132y63=ff7887
x133y63=fe7585
x134y63=ff7688
x135y63=fd7589
x136y63=fd7589
x137y63=ff7789
x138y63=fc7385
x139y63=fa7181
x140y63=f26b79
x141y63=de5f68
x142y63=d1545c
x143y63=ca4b56
x144y63=c74954
x145y63=c04750
x146y63=bc444d
x147y63=bb444a
x148y63=bc454b
x149y63=bb444a
x150y63=b74248
x151y63=b43f45
x152y63=b74449
x153y63=b44146
x154y63=af4144
x155y63=ad4045
x156y63=ab4246
x157y63=a44042
x158y63=a24041
x159y63=a14343
x160y63=9a3f3e
x161y63=953d3b
x162y63=913d3b
x163y63=863b38
x164y63=7c3533
x165y63=7a3233
x166y63=753132
x167y63=6f2f2f
x168y63=6d302f
x169y63=6e3031
x170y63=6a302e
x171y63=592622
x172y63=53221d
x173y63=552420
x174y63=542420
x175y63=714842
x176y63=c29c93
x1y64=bbd6e9
x2y64=c2ddf2
x3y64=c1dbf2
x4y64=c5dbf2
x5y64=bdcede
x6y64=9da9b5
x7y64=3b4046
x8y64=2e2f31
x9y64=2b2d2a
x10y64=2a2c29
x11y64=2b2d2a
x12y64=2b2d2a
x13y64=282a25
x14y64=282a25
x15y64=252621
x16y64=272823
x17y64=272823
x18y64=262722
x19y64=242520
x20y64=272823
x21y64=272823
x22y64=252621
x23y64=272823
x24y64=23241f
x25y64=22231e
x26y64=23241f
x27y64=252620
x28y64=23241e
x29y64=22231d
x30y64=21221c
x31y64=20211b
x32y64=1f1e19
x33y64=21201b
x34y64=272621
x35y64=1d1c17
x36y64=1f1e19
x37y64=1f201b
x38y64=21221d
x39y64=1b1c17
x40y64=1b1c17
x41y64=21221d
x42y64=272823
x43y64=2a2b26
x44y64=302f2a
x45y64=2e2b26
x46y64=393631
x47y64=45403c
x48y64=58534d
x49y64=524d47
x50y64=413c36
x51y64=2e2923
x52y64=27221c
x53y64=241f19
x54y64=221f18
x55y64=28251e
x56y64=282520
x57y64=282520
x58y64=2e2b26
x59y64=26231c
x60y64=24211a
x61y64=201d16
x62y64=221f18
x63y64=232017
x64y64=201d14
x65y64=221e15
x66y64=241f19
x67y64=29241e
x68y64=28251e
x69y64=241f19
x70y64=1e1913
x71y64=201b15
x72y64=211c16
x73y64=25201a
x74y64=25221b
x75y64=2a251f
x76y64=28231d
x77y64=27231a
x78y64=322b21
x79y64=5a5047
x80y64=6a5d55
x81y64=665951
x82y64=6f6059
x83y64=4c3f37
x84y64=40332b
x85y64=342a21
x86y64=362c23
x87y64=31281f
x88y64=2f261d
x89y64=2e251c
x90y64=2c231a
x91y64=2e241b
x92y64=2e241b
x93y64=2e2119
x94y64=291f16
x95y64=271d14
x96y64=281e15
x97y64=291c14
x98y64=382b23
x99y64=2e2119
x100y64=2b2118
x101y64=2c211b
x102y64=2b2219
x103y64=322920
x104y64=3b3229
x105y64=494039
x106y64=271e17
x107y64=29221c
x108y64=1d1610
x109y64=1b1610
x110y64=1b1811
x111y64=252118
x112y64=201911
x113y64=271e17
x114y64=30231b
x115y64=44362d
x116y64=402f25
x117y64=403225
x118y64=49392c
x119y64=4d3b2d
x120y64=443122
x121y64=463022
x122y64=473425
x123y64=504031
x124y64=5e5043
x125y64=4f4136
x126y64=55443c
x127y64=67534c
x128y64=93726d
x129y64=af7875
x130y64=c17373
x131y64=d67177
x132y64=eb767f
x133y64=f47580
x134y64=f97281
x135y64=fb7485
x136y64=fe7788
x137y64=fb7485
x138y64=f36c7b
x139y64=e76370
x140y64=d65760
x141y64=c54c51
x142y64=bc484b
x143y64=bb444a
x144y64=b9444c
x145y64=b44148
x146y64=b54448
x147y64=b03f43
x148y64=af4144
x149y64=ad3f42
x150y64=aa3c3f
x151y64=aa3c3f
x152y64=aa3c3f
x153y64=a3393b
x154y64=9b3334
x155y64=8f2d2e
x156y64=8d2f2f
x157y64=842c2a
x158y64=7b2824
x159y64=762923
x160y64=722922
x161y64=6e2922
x162y64=63271f
x163y64=5f2a22
x164y64=61322a
x165y64=4a1d17
x166y64=441b15
x167y64=431e18
x168y64=3c1915
x169y64=391612
x170y64=35140f
x171y64=381b13
x172y64=3b1e16
x173y64=603f3a
x174y64=b79893
x175y64=f8dfd8
x176y64=fff5ec
x1y65=c7dced
x2y65=c7def0
x3y65=c8def3
x4y65=c7ddf2
x5y65=c2d7e8
x6y65=c4d6e4
x7y65=9ba5ae
x8y65=31393c
x9y65=262a2b
x10y65=2c2e2d
x11y65=2a2a28
x12y65=282826
x13y65=2a2b26
x14y65=2a2b26
x15y65=272823
x16y65=252621
x17y65=252621
x18y65=23241f
x19y65=282a25
x20y65=272924
x21y65=282924
x22y65=282924
x23y65=252621
x24y65=242520
x25y65=24251f
x26y65=24251f
x27y65=262520
x28y65=24231e
x29y65=24231f
x30y65=21201c
x31y65=22211d
x32y65=22211d
x33y65=1f1e1a
x34y65=262521
x35y65=252420
x36y65=1f1e1a
x37y65=1e1d19
x38y65=24231f
x39y65=1c1b17
x40y65=1e1d19
x41y65=1c1b16
x42y65=1c1b16
x43y65=1f1e19
x44y65=21201b
x45y65=312e29
x46y65=3b3831
x47y65=3f3c35
x48y65=413c36
x49y65=38332d
x50y65=3c352d
x51y65=3c352d
x52y65=3a332b
x53y65=362f27
x54y65=2d2920
x55y65=2b271e
x56y65=2a251f
x57y65=28231f
x58y65=241f1b
x59y65=27241f
x60y65=25221d
x61y65=25221b
x62y65=221f18
x63y65=241f19
x64y65=221e15
x65y65=242118
x66y65=221e15
x67y65=29241e
x68y65=322d27
x69y65=2a231b
x70y65=231f16
x71y65=1d1910
x72y65=211d14
x73y65=28241b
x74y65=302b25
x75y65=322b25
x76y65=2b2620
x77y65=29251c
x78y65=2f281e
x79y65=594f46
x80y65=60534b
x81y65=756860
x82y65=5e514b
x83y65=42352d
x84y65=3e3129
x85y65=3a3026
x86y65=372d23
x87y65=2f261d
x88y65=2c231a
x89y65=2f261f
x90y65=292019
x91y65=2a211a
x92y65=2a2118
x93y65=2c2219
x94y65=2a2016
x95y65=291f16
x96y65=2b2118
x97y65=42352d
x98y65=31241c
x99y65=271c16
x100y65=2a1f19
x101y65=29201b
x102y65=282119
x103y65=282117
x104y65=373026
x105y65=473e35
x106y65=382f28
x107y65=221b15
x108y65=1d1814
x109y65=1a1710
x110y65=1d1a11
x111y65=1c180d
x112y65=2a2118
x113y65=33251c
x114y65=3b291f
x115y65=665345
x116y65=604a3d
x117y65=453126
x118y65=3c2a1e
x119y65=372416
x120y65=3a2718
x121y65=442f1e
x122y65=4d3827
x123y65=534232
x124y65=39291a
x125y65=3e2c20
x126y65=4a382e
x127y65=695850
x128y65=79665f
x129y65=8a6f68
x130y65=9f7672
x131y65=ad706f
x132y65=c97575
x133y65=e27578
x134y65=f3767e
x135y65=fb7785
x136y65=f67280
x137y65=e96976
x138y65=e0646f
x139y65=c75056
x140y65=b84548
x141y65=af4140
x142y65=a83c3a
x143y65=a3393b
x144y65=a0363a
x145y65=a03638
x146y65=9c3435
x147y65=983132
x148y65=8d2929
x149y65=882426
x150y65=892527
x151y65=8a2324
x152y65=882122
x153y65=862425
x154y65=892b2b
x155y65=893130
x156y65=84332f
x157y65=833832
x158y65=803c31
x159y65=7c3e31
x160y65=773f32
x161y65=714032
x162y65=74483b
x163y65=957566
x164y65=a4887a
x165y65=856b5e
x166y65=93786d
x167y65=90756c
x168y65=684f48
x169y65=493029
x170y65=39221a
x171y65=463025
x172y65=948077
x173y65=ebd8d1
x174y65=fef1eb
x175y65=fffdf8
x176y65=fffdfa
x1y66=d5eafb
x2y66=d2e7f8
x3y66=d5eafd
x4y66=d6ebfe
x5y66=cee3f4
x6y66=cddfed
x7y66=c9d7e2
x8y66=949ea7
x9y66=2f3438
x10y66=292a2c
x11y66=2b2b2b
x12y66=2c2c2a
x13y66=2e2e2c
x14y66=2b2c27
x15y66=2a2c29
x16y66=262825
x17y66=252621
x18y66=272823
x19y66=292a25
x20y66=282924
x21y66=272823
x22y66=282924
x23y66=262722
x24y66=272823
x25y66=262722
x26y66=252620
x27y66=262722
x28y66=242520
x29y66=252420
x30y66=23221e
x31y66=272320
x32y66=272320
x33y66=23221e
x34y66=24231f
x35y66=23221e
x36y66=22211d
x37y66=23221e
x38y66=1c1b17
x39y66=1b1a16
x40y66=21201c
x41y66=23221d
x42y66=22211c
x43y66=201f1a
x44y66=292823
x45y66=312e27
x46y66=2d2a23
x47y66=28251e
x48y66=2a2720
x49y66=342d25
x50y66=352e26
x51y66=383129
x52y66=403931
x53y66=3d362e
x54y66=383129
x55y66=362f27
x56y66=2d2920
x57y66=27221c
x58y66=27221e
x59y66=28231f
x60y66=282520
x61y66=28251e
x62y66=27241d
x63y66=221d17
x64y66=252118
x65y66=242216
x66y66=242015
x67y66=211c16
x68y66=2f2822
x69y66=332c24
x70y66=2b241c
x71y66=242017
x72y66=242017
x73y66=2f2b22
x74y66=363229
x75y66=39312e
x76y66=332c26
x77y66=302921
x78y66=2e271d
x79y66=40372e
x80y66=5c5249
x81y66=6a5d55
x82y66=685b55
x83y66=41342c
x84y66=44372f
x85y66=41372e
x86y66=40362c
x87y66=392f26
x88y66=2e251c
x89y66=271e17
x90y66=2a211a
x91y66=292019
x92y66=2b221b
x93y66=271e15
x94y66=271e15
x95y66=281e15
x96y66=3f352c
x97y66=30261d
x98y66=251a14
x99y66=221914
x100y66=2a211c
x101y66=2d2620
x102y66=272018
x103y66=2a2319
x104y66=2c251b
x105y66=2e251c
x106y66=362d26
x107y66=261f19
x108y66=211c16
x109y66=1b1811
x110y66=1c1910
x111y66=261e13
x112y66=3e3023
x113y66=483628
x114y66=4e382a
x115y66=694f40
x116y66=492f20
x117y66=3d2719
x118y66=3d2a1c
x119y66=3f2c1d
x120y66=473123
x121y66=4d3626
x122y66=55402f
x123y66=4b3a2a
x124y66=4f3f30
x125y66=554136
x126y66=56443a
x127y66=3b2d24
x128y66=40332b
x129y66=51423b
x130y66=746059
x131y66=8a6962
x132y66=aa7571
x133y66=c37372
x134y66=d47174
x135y66=de7079
x136y66=d66770
x137y66=c35860
x138y66=942b30
x139y66=932a2e
x140y66=932b2a
x141y66=8e2625
x142y66=871f1e
x143y66=861f22
x144y66=881f23
x145y66=8a2223
x146y66=8b2324
x147y66=8d2627
x148y66=993535
x149y66=9c383a
x150y66=a23e40
x151y66=a23b3e
x152y66=9b3b3c
x153y66=974140
x154y66=964846
x155y66=8f4947
x156y66=975a55
x157y66=996359
x158y66=8e5e52
x159y66=845a4e
x160y66=8a6457
x161y66=926e60
x162y66=ad8d80
x163y66=c1aa9a
x164y66=b29f90
x165y66=ae9b8c
x166y66=9b887a
x167y66=6a564b
x168y66=4f3b30
x169y66=432f24
x170y66=5e4c42
x171y66=c9b8ae
x172y66=faede4
x173y66=fffdf5
x174y66=fffffa
x175y66=fffefa
x176y66=fefefc
x1y67=cfe5fa
x2y67=d1e8fa
x3y67=d5e8f9
x4y67=d3e6f5
x5y67=d2e5f4
x6y67=cddfed
x7y67=c6d3e3
x8y67=bac6d2
x9y67=5e656d
x10y67=252a2d
x11y67=272b2c
x12y67=2e302d
x13y67=2e302d
x14y67=2a2c29
x15y67=252928
x16y67=242827
x17y67=262825
x18y67=272823
x19y67=242422
x20y67=282826
x21y67=272725
x22y67=2b2b29
x23y67=2d2c28
x24y67=292824
x25y67=282723
x26y67=252621
x27y67=252724
x28y67=242621
x29y67=262722
x30y67=282723
x31y67=2b2a26
x32y67=2c2b26
x33y67=24231e
x34y67=201f1a
x35y67=21201c
x36y67=23221e
x37y67=25241f
x38y67=31302b
x39y67=1f1e19
x40y67=1f1e19
x41y67=22211c
x42y67=22211c
x43y67=24241c
x44y67=24241c
x45y67=24211c
x46y67=221f1a
x47y67=26231c
x48y67=2d2a23
x49y67=2e271f
x50y67=302921
x51y67=352c23
x52y67=3d342b
x53y67=3c352b
x54y67=362f25
x55y67=352e24
x56y67=39322a
x57y67=332c26
x58y67=2d2822
x59y67=29241e
x60y67=29241e
x61y67=29241e
x62y67=28231d
x63y67=262219
x64y67=28241b
x65y67=262217
x66y67=29251a
x67y67=28231d
x68y67=26211b
x69y67=332c24
x70y67=30291f
x71y67=2c251b
x72y67=252116
x73y67=2a271e
x74y67=312e25
x75y67=302825
x76y67=2d2522
x77y67=2a231d
x78y67=2b241c
x79y67=423e35
x80y67=60594f
x81y67=675d54
x82y67=584e45
x83y67=51443e
x84y67=4f423a
x85y67=52453d
x86y67=433930
x87y67=33291f
x88y67=392f26
x89y67=30271e
x90y67=2b221b
x91y67=2d241d
x92y67=3b322b
x93y67=291f16
x94y67=261c13
x95y67=302720
x96y67=332a23
x97y67=201911
x98y67=201911
x99y67=201913
x100y67=231c16
x101y67=29221a
x102y67=2a231b
x103y67=292218
x104y67=2d251a
x105y67=30261d
x106y67=3a312a
x107y67=29221c
x108y67=16110b
x109y67=1a160d
x110y67=201a0e
x111y67=47372a
x112y67=675143
x113y67=7a614d
x114y67=816651
x115y67=5a3e29
x116y67=492e1b
x117y67=3e2715
x118y67=422d1c
x119y67=473123
x120y67=4a3427
x121y67=4d3628
x122y67=442e21
x123y67=453528
x124y67=3c2c1f
x125y67=432f24
x126y67=38261c
x127y67=3a2c23
x128y67=574841
x129y67=5c4d46
x130y67=564740
x131y67=5e4d46
x132y67=816a64
x133y67=98716c
x134y67=ab7573
x135y67=b06e6f
x136y67=a75f60
x137y67=793230
x138y67=6e201e
x139y67=781e1e
x140y67=802021
x141y67=912d2f
x142y67=9a3336
x143y67=a63b41
x144y67=ab3e44
x145y67=ad3e45
x146y67=ac3d44
x147y67=ac3f44
x148y67=af4247
x149y67=ac3d43
x150y67=ae4146
x151y67=ae4349
x152y67=a5464a
x153y67=964e4f
x154y67=a56e6b
x155y67=ba918d
x156y67=b2918c
x157y67=aa8d87
x158y67=b29994
x159y67=c5b0ab
x160y67=b29d98
x161y67=b69b92
x162y67=c4a89d
x163y67=b89c91
x164y67=a0857a
x165y67=5a4439
x166y67=402a1f
x167y67=3d2519
x168y67=523a2e
x169y67=826c5f
x170y67=dbcbbe
x171y67=fef4eb
x172y67=fffcf6
x173y67=fefdf8
x174y67=fffffb
x175y67=fefefc
x176y67=ffffff
x1y68=c2dbf1
x2y68=c4daef
x3y68=c3d8eb
x4y68=ccdff0
x5y68=cde0f1
x6y68=cee1f0
x7y68=cbdcec
x8y68=c5d2e2
x9y68=a5afb9
x10y68=3a434a
x11y68=292e31
x12y68=2c302f
x13y68=2f3130
x14y68=2a2c29
x15y68=272b2a
x16y68=252726
x17y68=272926
x18y68=262722
x19y68=2b2b29
x20y68=292826
x21y68=252523
x22y68=2b2b29
x23y68=292824
x24y68=292824
x25y68=262523
x26y68=252523
x27y68=252724
x28y68=262825
x29y68=272823
x30y68=292824
x31y68=2a2924
x32y68=272621
x33y68=24231e
x34y68=23221d
x35y68=25241f
x36y68=24231e
x37y68=25241f
x38y68=21201b
x39y68=21201b
x40y68=1f1e19
x41y68=22211c
x42y68=23221d
x43y68=202018
x44y68=26261e
x45y68=2a2720
x46y68=2b2821
x47y68=29261f
x48y68=302d26
x49y68=342d25
x50y68=342d25
x51y68=3c352b
x52y68=373026
x53y68=372e25
x54y68=30271e
x55y68=322920
x56y68=382f26
x57y68=3e372f
x58y68=362f29
x59y68=2f2822
x60y68=2c2721
x61y68=2a251f
x62y68=28231d
x63y68=2a261d
x64y68=262219
x65y68=2d291e
x66y68=2d2920
x67y68=28251c
x68y68=2c281f
x69y68=2d261e
x70y68=332c24
x71y68=312a20
x72y68=2b241a
x73y68=2c2a1e
x74y68=2d2a21
x75y68=332a25
x76y68=342b26
x77y68=302722
x78y68=37302a
x79y68=514d44
x80y68=585149
x81y68=5a5148
x82y68=493f36
x83y68=594c44
x84y68=53463e
x85y68=493c34
x86y68=493c34
x87y68=372a22
x88y68=2e241b
x89y68=2d241b
x90y68=2c231a
x91y68=2c231c
x92y68=281f18
x93y68=332822
x94y68=271c16
x95y68=372e27
x96y68=1f1810
x97y68=1a160d
x98y68=1e1a11
x99y68=1f1a14
x100y68=1d1812
x101y68=241d15
x102y68=2b241a
x103y68=2a2319
x104y68=342c21
x105y68=3b3229
x106y68=423930
x107y68=383129
x108y68=272018
x109y68=1f180e
x110y68=31271b
x111y68=4e3b2d
x112y68=5f4534
x113y68=795d48
x114y68=81634b
x115y68=765840
x116y68=634731
x117y68=523925
x118y68=452e1c
x119y68=452f21
x120y68=3f2c1e
x121y68=3a2417
x122y68=3a2719
x123y68=362619
x124y68=322419
x125y68=39281e
x126y68=37261c
x127y68=36281f
x128y68=35271e
x129y68=45342d
x130y68=4b3c35
x131y68=4d433a
x132y68=574d44
x133y68=67564f
x134y68=7b625d
x135y68=9c7771
x136y68=986d67
x137y68=8f625c
x138y68=814a45
x139y68=8d4342
x140y68=9c4645
x141y68=a64648
x142y68=b14a4d
x143y68=b14449
x144y68=b5444a
x145y68=b7434c
x146y68=b5414a
x147y68=b44148
x148y68=b24145
x149y68=b3444a
x150y68=af464a
x151y68=a74b4e
x152y68=af6566
x153y68=d5a2a1
x154y68=f5d4cf
x155y68=f0dbd6
x156y68=dfd0cb
x157y68=ddd0ca
x158y68=e1d3d0
x159y68=ded3d1
x160y68=e2d4d1
x161y68=d0bcb3
x162y68=91766d
x163y68=664a3f
x164y68=3c2015
x165y68=392115
x166y68=5a4437
x167y68=766053
x168y68=c2afa1
x169y68=f7e5db
x170y68=fff8ef
x171y68=fffdf9
x172y68=fffffb
x173y68=fffffd
x174y68=feffff
x175y68=ffffff
x176y68=fefefe
x1y69=c5dbf3
x2y69=c5dbf2
x3y69=bed7ed
x4y69=bcd5e9
x5y69=bdd6ea
x6y69=bad1e3
x7y69=c2d7e8
x8y69=caddec
x9y69=c8d8e7
x10y69=a0acb8
x11y69=3f464e
x12y69=282c2f
x13y69=2a2a2a
x14y69=2b2b29
x15y69=272924
x16y69=292b26
x17y69=272725
x18y69=2c2c2a
x19y69=272725
x20y69=262624
x21y69=282826
x22y69=2d2d2b
x23y69=262722
x24y69=23241f
x25y69=262722
x26y69=262722
x27y69=232522
x28y69=232522
x29y69=23241f
x30y69=292824
x31y69=292823
x32y69=292621
x33y69=24231f
x34y69=24231e
x35y69=262520
x36y69=23221d
x37y69=21201b
x38y69=23221e
x39y69=21201b
x40y69=22211c
x41y69=22221a
x42y69=24241c
x43y69=25241f
x44y69=23231b
x45y69=28251e
x46y69=28251e
x47y69=2f2c25
x48y69=2c2922
x49y69=2e271f
x50y69=39322a
x51y69=3e372d
x52y69=474036
x53y69=4e463b
x54y69=534b40
x55y69=3c332a
x56y69=322920
x57y69=352c25
x58y69=403730
x59y69=3d342d
x60y69=2e271f
x61y69=2d2920
x62y69=28241b
x63y69=272018
x64y69=272018
x65y69=252118
x66y69=2a261d
x67y69=302c23
x68y69=2f2b22
x69y69=332c26
x70y69=3a332d
x71y69=332a23
x72y69=30291f
x73y69=2d291e
x74y69=2b271c
x75y69=3e342b
x76y69=41372e
x77y69=493e3a
x78y69=403732
x79y69=393029
x80y69=41382f
x81y69=4d433a
x82y69=493c34
x83y69=4d4038
x84y69=52453d
x85y69=4c3d36
x86y69=51443c
x87y69=44372f
x88y69=3e342b
x89y69=352c23
x90y69=322920
x91y69=2c231a
x92y69=292019
x93y69=291e18
x94y69=342923
x95y69=241b14
x96y69=251e16
x97y69=1f1c13
x98y69=1d1a13
x99y69=1f1a14
x100y69=1e1913
x101y69=221b13
x102y69=211a10
x103y69=221b11
x104y69=241e12
x105y69=2b241a
x106y69=282117
x107y69=3c332c
x108y69=342b24
x109y69=2a2016
x110y69=493b2e
x111y69=654e3e
x112y69=6d503e
x113y69=684935
x114y69=6d4f37
x115y69=70523a
x116y69=6c5038
x117y69=674d36
x118y69=58422d
x119y69=372415
x120y69=372517
x121y69=352213
x122y69=3a2919
x123y69=3b2b1c
x124y69=37291e
x125y69=30231a
x126y69=271a11
x127y69=31241b
x128y69=4f4136
x129y69=624f48
x130y69=5c4a40
x131y69=716356
x132y69=584c3e
x133y69=5b4e45
x134y69=53423a
x135y69=6a534b
x136y69=997e77
x137y69=8e766c
x138y69=906e65
x139y69=95605a
x140y69=a35956
x141y69=ab4d4d
x142y69=b14749
x143y69=b64847
x144y69=ba4848
x145y69=b94649
x146y69=b64348
x147y69=b74449
x148y69=b34546
x149y69=b34c4d
x150y69=ad5a56
x151y69=d49b94
x152y69=ffe2dc
x153y69=ffe9e5
x154y69=f2e3de
x155y69=f5ece7
x156y69=efe8e2
x157y69=ede4df
x158y69=e7ded9
x159y69=e3d9d0
x160y69=c7b9b0
x161y69=826c61
x162y69=3e2217
x163y69=3e2016
x164y69=482c20
x165y69=6e5445
x166y69=9f8c7b
x167y69=d8cabd
x168y69=fdf3e9
x169y69=fffdfa
x170y69=fffefb
x171y69=fffcfd
x172y69=fffeff
x173y69=ffffff
x174y69=fefeff
x175y69=ffffff
x176y69=fffffd
x1y70=c3d9f1
x2y70=bfd7ef
x3y70=c0d8f0
x4y70=c0d8f0
x5y70=bfd8ee
x6y70=bad3e7
x7y70=b9d0e2
x8y70=bcd1e4
x9y70=bed0e4
x10y70=c1d1e1
x11y70=b8c4d0
x12y70=5b626a
x13y70=2b2e33
x14y70=292b2a
x15y70=282a25
x16y70=282a25
x17y70=2c2b29
x18y70=282725
x19y70=292927
x20y70=262624
x21y70=2b2b29
x22y70=232321
x23y70=252621
x24y70=272823
x25y70=242520
x26y70=252722
x27y70=252523
x28y70=262624
x29y70=242520
x30y70=282924
x31y70=292621
x32y70=26231e
x33y70=23221e
x34y70=22211c
x35y70=23221d
x36y70=21201b
x37y70=22211c
x38y70=201f1a
x39y70=1f1e19
x40y70=1f1e19
x41y70=1f1f17
x42y70=212119
x43y70=24231e
x44y70=23231b
x45y70=29261f
x46y70=2c2922
x47y70=2c2922
x48y70=322f28
x49y70=363229
x50y70=343027
x51y70=362f27
x52y70=362f25
x53y70=3c332a
x54y70=494136
x55y70=4e453c
x56y70=453c33
x57y70=362d26
x58y70=302720
x59y70=302720
x60y70=322b23
x61y70=2e271f
x62y70=2e271f
x63y70=29221a
x64y70=29221a
x65y70=2d261e
x66y70=2a261d
x67y70=29251c
x68y70=343027
x69y70=36312b
x70y70=413936
x71y70=443d37
x72y70=373028
x73y70=302c21
x74y70=342d23
x75y70=473d34
x76y70=4b4138
x77y70=4b403a
x78y70=3c312b
x79y70=44372f
x80y70=574a41
x81y70=52443b
x82y70=54463d
x83y70=4c3f36
x84y70=4c3f36
x85y70=61534a
x86y70=51423b
x87y70=52453d
x88y70=4b3e36
x89y70=3f352c
x90y70=332a21
x91y70=2e251c
x92y70=2b2219
x93y70=2c211b
x94y70=2e231d
x95y70=292019
x96y70=262219
x97y70=201d16
x98y70=1a1710
x99y70=1c1711
x100y70=1d1812
x101y70=231c14
x102y70=261f17
x103y70=1f1b10
x104y70=201c11
x105y70=251e14
x106y70=221b11
x107y70=312821
x108y70=423930
x109y70=2d2017
x110y70=524233
x111y70=6e5747
x112y70=6b4e3c
x113y70=674834
x114y70=694a35
x115y70=71533b
x116y70=6e523a
x117y70=684c34
x118y70=533922
x119y70=402917
x120y70=392615
x121y70=3e2c18
x122y70=402f1d
x123y70=3c2e21
x124y70=2e2118
x125y70=2b2118
x126y70=2d231a
x127y70=392f25
x128y70=46382d
x129y70=4d3b31
x130y70=584439
x131y70=7f6d5f
x132y70=665949
x133y70=635749
x134y70=695d51
x135y70=625149
x136y70=5e4d45
x137y70=625449
x138y70=69554c
x139y70=75534a
x140y70=85504a
x141y70=a05552
x142y70=ae504e
x143y70=b44c49
x144y70=b64a48
x145y70=b44c4d
x146y70=b0494c
x147y70=af4b4b
x148y70=ac514e
x149y70=b96960
x150y70=e9ab9e
x151y70=f8d7c8
x152y70=f2e0d4
x153y70=f6ebe5
x154y70=f3ece6
x155y70=f2ede7
x156y70=eae3dd
x157y70=dfd6cf
x158y70=bab0a7
x159y70=97897e
x160y70=7f6d5f
x161y70=7c6557
x162y70=7e6256
x163y70=84685c
x164y70=917a6c
x165y70=c1ae9f
x166y70=ecdfcf
x167y70=fffaef
x168y70=fffef7
x169y70=fffffd
x170y70=fffdff
x171y70=fffeff
x172y70=fffdff
x173y70=fffdff
x174y70=ffffff
x175y70=ffffff
x176y70=fefefc
x1y71=c0d8f0
x2y71=c2daf2
x3y71=c0d8f0
x4y71=c3d9f1
x5y71=bcd2e9
x6y71=bad0e5
x7y71=bbd1e6
x8y71=b7cde2
x9y71=b8cee3
x10y71=b8cde0
x11y71=bacce0
x12y71=becede
x13y71=8e9ba4
x14y71=333c41
x15y71=272b2a
x16y71=252724
x17y71=2b2a28
x18y71=2d2c2a
x19y71=282826
x20y71=282826
x21y71=21201c
x22y71=21221d
x23y71=262624
x24y71=232522
x25y71=252722
x26y71=252722
x27y71=252621
x28y71=242520
x29y71=23241f
x30y71=23241f
x31y71=25211e
x32y71=24201d
x33y71=22211c
x34y71=23221d
x35y71=22211c
x36y71=201f1a
x37y71=22211c
x38y71=201f1a
x39y71=201f1a
x40y71=21201b
x41y71=21201b
x42y71=21201b
x43y71=2b2b23
x44y71=26261e
x45y71=282820
x46y71=2a2a22
x47y71=2d2a23
x48y71=312e27
x49y71=2c2922
x50y71=322e25
x51y71=3b342c
x52y71=40392f
x53y71=463d34
x54y71=4d443b
x55y71=584f46
x56y71=5a5047
x57y71=534842
x58y71=3c332c
x59y71=332a23
x60y71=2c251d
x61y71=2f2820
x62y71=2d261e
x63y71=332c24
x64y71=342d25
x65y71=322b25
x66y71=332c24
x67y71=352e26
x68y71=37332a
x69y71=3f3c35
x70y71=4a4742
x71y71=56514b
x72y71=49443e
x73y71=433e38
x74y71=3c352f
x75y71=483f38
x76y71=60554f
x77y71=554a44
x78y71=564c43
x79y71=4e3d35
x80y71=6a584e
x81y71=5c4b41
x82y71=57463e
x83y71=53453c
x84y71=574940
x85y71=675950
x86y71=61534a
x87y71=5e5047
x88y71=52453c
x89y71=4d423c
x90y71=3a2f29
x91y71=352b22
x92y71=352b22
x93y71=3e3128
x94y71=31271e
x95y71=2e251e
x96y71=2c251f
x97y71=231e18
x98y71=1e1913
x99y71=1d1812
x100y71=1f1812
x101y71=221914
x102y71=2d261e
x103y71=231f16
x104y71=252219
x105y71=242017
x106y71=272018
x107y71=2d241d
x108y71=40372e
x109y71=372b1f
x110y71=4f3f30
x111y71=523d2c
x112y71=6b503d
x113y71=664a35
x114y71=583924
x115y71=634430
x116y71=7d5e49
x117y71=856348
x118y71=7d5b40
x119y71=73553d
x120y71=765a45
x121y71=5f4632
x122y71=432e1d
x123y71=3a2c21
x124y71=2d231a
x125y71=261d16
x126y71=261d14
x127y71=2a2016
x128y71=2e2216
x129y71=36251b
x130y71=473529
x131y71=645343
x132y71=4e3e2e
x133y71=706051
x134y71=837366
x135y71=5e4d43
x136y71=3e2d25
x137y71=42342b
x138y71=4b3a32
x139y71=59463f
x140y71=61443e
x141y71=80554c
x142y71=9b5c55
x143y71=ab534f
x144y71=ad4f4d
x145y71=a65053
x146y71=a25656
x147y71=b5726c
x148y71=c3897d
x149y71=f4c1ae
x150y71=f8d2bb
x151y71=f8dfcb
x152y71=fff0e1
x153y71=f7ede4
x154y71=f4ede5
x155y71=e5dcd3
x156y71=d2c5bc
x157y71=b2a499
x158y71=b2a092
x159y71=b09a8c
x160y71=ab9484
x161y71=a58b7a
x162y71=a28877
x163y71=b29b8b
x164y71=dac8ba
x165y71=f0e6dd
x166y71=fffbf5
x167y71=fffdfa
x168y71=fffffd
x169y71=fffffd
x170y71=fffeff
x171y71=fffeff
x172y71=fffeff
x173y71=fffeff
x174y71=fffeff
x175y71=fefefe
x176y71=ffffff
x1y72=bed6ee
x2y72=bed6ee
x3y72=c5dbf3
x4y72=c3d9f1
x5y72=c4daf1
x6y72=c0d6ed
x7y72=bdd3ea
x8y72=bdd3ea
x9y72=b8d1e7
x10y72=bad3e7
x11y72=b5cbe0
x12y72=b8cde0
x13y72=b8c9d9
x14y72=a9b7c2
x15y72=515a5f
x16y72=2a2f32
x17y72=2a2b2d
x18y72=262626
x19y72=282826
x20y72=242422
x21y72=24231f
x22y72=24231f
x23y72=242422
x24y72=222421
x25y72=232522
x26y72=22241f
x27y72=242520
x28y72=24231f
x29y72=252420
x30y72=24231f
x31y72=252420
x32y72=272320
x33y72=23221d
x34y72=25241f
x35y72=252420
x36y72=22211c
x37y72=21201b
x38y72=23221d
x39y72=1e1d18
x40y72=22211c
x41y72=272621
x42y72=25241f
x43y72=22211c
x44y72=282722
x45y72=292823
x46y72=1e1d18
x47y72=24211a
x48y72=27241d
x49y72=26231c
x50y72=2d2822
x51y72=3b342e
x52y72=3c352d
x53y72=3a332b
x54y72=3e352c
x55y72=483f36
x56y72=4f453c
x57y72=544943
x58y72=504740
x59y72=382f28
x60y72=362f27
x61y72=362f27
x62y72=383129
x63y72=322b23
x64y72=322e25
x65y72=342d27
x66y72=383129
x67y72=373026
x68y72=3c382f
x69y72=46433c
x70y72=53504b
x71y72=625f5a
x72y72=5f5c57
x73y72=585755
x74y72=464543
x75y72=544f4b
x76y72=57504a
x77y72=6b645e
x78y72=6c6259
x79y72=726157
x80y72=746055
x81y72=6e5a4f
x82y72=645248
x83y72=604f45
x84y72=625449
x85y72=76685d
x86y72=67594e
x87y72=76685d
x88y72=685a51
x89y72=50433b
x90y72=392e28
x91y72=44372f
x92y72=493c33
x93y72=372a21
x94y72=362920
x95y72=2d241d
x96y72=251e18
x97y72=231c16
x98y72=1f1812
x99y72=1d1610
x100y72=1e1711
x101y72=1c130e
x102y72=211a14
x103y72=201b15
x104y72=1d1a11
x105y72=1f1b12
x106y72=231f16
x107y72=261f17
x108y72=2f261d
x109y72=3f3529
x110y72=57493c
x111y72=635041
x112y72=6b5442
x113y72=6f5544
x114y72=7d624f
x115y72=735646
x116y72=6f503c
x117y72=876349
x118y72=977255
x119y72=a17e62
x120y72=917158
x121y72=674b35
x122y72=462f1d
x123y72=39281e
x124y72=2d221c
x125y72=271e17
x126y72=241b12
x127y72=251b11
x128y72=271b0f
x129y72=2f2116
x130y72=453528
x131y72=433324
x132y72=544333
x133y72=746353
x134y72=665649
x135y72=3a2c23
x136y72=2f221a
x137y72=31241c
x138y72=30231b
x139y72=3b302a
x140y72=40332b
x141y72=463025
x142y72=603b32
x143y72=91544f
x144y72=b26e6b
x145y72=dda1a0
x146y72=f2bfbb
x147y72=d5a79a
x148y72=e6c0ad
x149y72=efcfb6
x150y72=fbe1c8
x151y72=fff0dc
x152y72=faeddd
x153y72=e9e1d6
x154y72=dad2c7
x155y72=ccc0b4
x156y72=c8bbab
x157y72=c8b7a7
x158y72=c7b2a1
x159y72=c1a796
x160y72=bca38f
x161y72=b7a08e
x162y72=ccb7a6
x163y72=efdfd0
x164y72=f8eee4
x165y72=fffdf8
x166y72=ffffff
x167y72=fffeff
x168y72=fffdfe
x169y72=fffeff
x170y72=fffeff
x171y72=fefefe
x172y72=ffffff
x173y72=fffeff
x174y72=fffffd
x175y72=fffefc
x176y72=fffffd
x1y73=c1d7ef
x2y73=c2d8f0
x3y73=c7ddf5
x4y73=c3d9f1
x5y73=c2d7f2
x6y73=c3d8f3
x7y73=c1d6f1
x8y73=bed4ec
x9y73=c0d6ee
x10y73=bed4eb
x11y73=b7d1e2
x12y73=b6cddf
x13y73=b7cee0
x14y73=b4c9da
x15y73=b4c5d5
x16y73=808e99
x17y73=2f383d
x18y73=252b2b
x19y73=292b2a
x20y73=262624
x21y73=272622
x22y73=22211d
x23y73=232321
x24y73=222421
x25y73=222421
x26y73=252724
x27y73=23241f
x28y73=252420
x29y73=201f1a
x30y73=262520
x31y73=24231f
x32y73=262521
x33y73=262521
x34y73=24231f
x35y73=282722
x36y73=25241f
x37y73=24231e
x38y73=24231e
x39y73=23221d
x40y73=24231e
x41y73=201f1a
x42y73=201f1a
x43y73=201f1a
x44y73=201f1a
x45y73=201f1a
x46y73=22221a
x47y73=23201b
x48y73=23201b
x49y73=24211c
x50y73=28251e
x51y73=312c26
x52y73=3d3930
x53y73=3c352d
x54y73=4f463f
x55y73=514841
x56y73=574e47
x57y73=5f5651
x58y73=574e49
x59y73=4f4641
x60y73=3f3832
x61y73=3d3630
x62y73=3c352f
x63y73=3b342e
x64y73=332e28
x65y73=312d24
x66y73=302c23
x67y73=393228
x68y73=352e26
x69y73=3c3731
x70y73=514e49
x71y73=64635e
x72y73=7a7c79
x73y73=7f8487
x74y73=71767a
x75y73=5f6364
x76y73=838582
x77y73=a4a39e
x78y73=a7a098
x79y73=8a796f
x80y73=856f64
x81y73=7d655b
x82y73=7b655a
x83y73=675549
x84y73=706257
x85y73=716358
x86y73=74685c
x87y73=796b60
x88y73=685a4f
x89y73=504239
x90y73=53463d
x91y73=483a31
x92y73=4d3f36
x93y73=3d2f26
x94y73=372a21
x95y73=2c211b
x96y73=261d16
x97y73=261d16
x98y73=383129
x99y73=251e18
x100y73=1e1711
x101y73=1f1513
x102y73=1e1711
x103y73=1c1711
x104y73=1d1812
x105y73=1b1811
x106y73=1d1a13
x107y73=211d14
x108y73=211d12
x109y73=2c261a
x110y73=43392d
x111y73=503e32
x112y73=4f3c2e
x113y73=513e30
x114y73=513e30
x115y73=5d4638
x116y73=715442
x117y73=8d6b50
x118y73=a27e5e
x119y73=9b785a
x120y73=89674b
x121y73=6f5137
x122y73=513824
x123y73=3a281c
x124y73=2c1f17
x125y73=241913
x126y73=261c13
x127y73=2a1d14
x128y73=2d1f16
x129y73=35281f
x130y73=3b2f23
x131y73=433326
x132y73=433326
x133y73=4a3a2d
x134y73=37291e
x135y73=291f16
x136y73=281f18
x137y73=261d16
x138y73=231a13
x139y73=241d17
x140y73=251e18
x141y73=332822
x142y73=3c2b23
x143y73=654d43
x144y73=9c7f77
x145y73=d8bdb4
x146y73=d0b4a8
x147y73=edcab6
x148y73=eeccb3
x149y73=f1d5bf
x150y73=f9e4cf
x151y73=f0e0d1
x152y73=ded4c8
x153y73=d5cdc0
x154y73=d2c9ba
x155y73=d2c5b5
x156y73=cebeae
x157y73=cfbcab
x158y73=cab5a0
x159y73=cbb29e
x160y73=c8b29d
x161y73=d8c2b4
x162y73=f4e6d9
x163y73=fdf9f0
x164y73=fffffb
x165y73=ffffff
x166y73=ffffff
x167y73=fffeff
x168y73=fffeff
x169y73=fffeff
x170y73=ffffff
x171y73=ffffff
x172y73=ffffff
x173y73=ffffff
x174y73=fffffd
x175y73=fffffd
x176y73=fffffb
x1y74=c1d9f3
x2y74=c3dbf5
x3y74=c0d8f2
x4y74=bfd7f1
x5y74=c0d8f4
x6y74=bed6f2
x7y74=c2daf6
x8y74=bfd4ef
x9y74=c0d5f0
x10y74=c3d9f1
x11y74=bed4e9
x12y74=bdd4e6
x13y74=b4cbdd
x14y74=b1c7dc
x15y74=b4cadf
x16y74=b3c6d7
x17y74=94a2ab
x18y74=384146
x19y74=272b2c
x20y74=242623
x21y74=23221e
x22y74=24231f
x23y74=242520
x24y74=222220
x25y74=232321
x26y74=232522
x27y74=252621
x28y74=21221d
x29y74=272621
x30y74=24231e
x31y74=24231f
x32y74=252420
x33y74=262521
x34y74=272622
x35y74=292824
x36y74=282723
x37y74=24231f
x38y74=21201c
x39y74=21201b
x40y74=1e1d18
x41y74=1f1e19
x42y74=1f1e19
x43y74=1d1c18
x44y74=1f1e19
x45y74=201f1a
x46y74=1d1c17
x47y74=201d18
x48y74=221f1a
x49y74=221f1a
x50y74=23201b
x51y74=26231e
x52y74=28231d
x53y74=39322c
x54y74=423b33
x55y74=544b44
x56y74=665d56
x57y74=605752
x58y74=6b625d
x59y74=655c57
x60y74=534c46
x61y74=564f49
x62y74=56514b
x63y74=403933
x64y74=35302a
x65y74=2a271e
x66y74=302d24
x67y74=2f281e
x68y74=3f3b32
x69y74=3d3832
x70y74=504f4b
x71y74=686d69
x72y74=929b9a
x73y74=bbc4cb
x74y74=c4cfd5
x75y74=c2cacd
x76y74=c5cbcb
x77y74=cfd1ce
x78y74=c7c2bc
x79y74=bcaea5
x80y74=9d897e
x81y74=887163
x82y74=856e60
x83y74=766355
x84y74=726255
x85y74=6c5e53
x86y74=73655a
x87y74=76685d
x88y74=6e6055
x89y74=625449
x90y74=6a5c51
x91y74=67594e
x92y74=5c4e43
x93y74=493b30
x94y74=372920
x95y74=352820
x96y74=2e231d
x97y74=312821
x98y74=2b221b
x99y74=1f1812
x100y74=1c150f
x101y74=201614
x102y74=1e1613
x103y74=1b1610
x104y74=1d1812
x105y74=1a1710
x106y74=1b1811
x107y74=19160d
x108y74=1d1910
x109y74=211d12
x110y74=2c2419
x111y74=44362b
x112y74=37261c
x113y74=291b10
x114y74=27190e
x115y74=332117
x116y74=442e20
x117y74=725640
x118y74=896a4e
x119y74=967458
x120y74=8b6c4f
x121y74=816349
x122y74=694e39
x123y74=322012
x124y74=24170e
x125y74=21170e
x126y74=291f16
x127y74=31231a
x128y74=382a21
x129y74=32251c
x130y74=2f2219
x131y74=31231a
x132y74=2e2015
x133y74=2d1f14
x134y74=281b12
x135y74=251e16
x136y74=231e18
x137y74=1f1812
x138y74=1e1711
x139y74=18150e
x140y74=1d1a13
x141y74=25201c
x142y74=312a24
x143y74=423930
x144y74=524940
x145y74=5c5248
x146y74=8d7d6e
x147y74=cfb6a0
x148y74=e8ceb7
x149y74=f5decc
x150y74=f3e2d2
x151y74=e2d6ca
x152y74=dbd1c7
x153y74=dad1c2
x154y74=d9cdbd
x155y74=d7c7b7
x156y74=d3c2b0
x157y74=d0beaa
x158y74=d0bba8
x159y74=d4bfac
x160y74=ead7c8
x161y74=f9e8de
x162y74=fffbf4
x163y74=fffffb
x164y74=fcffff
x165y74=fdfeff
x166y74=ffffff
x167y74=fffeff
x168y74=fffffd
x169y74=ffffff
x170y74=ffffff
x171y74=ffffff
x172y74=ffffff
x173y74=feffff
x174y74=feffff
x175y74=fffffd
x176y74=fffffb
x1y75=b8d1ef
x2y75=b7d0ee
x3y75=b6d1ee
x4y75=bad5f2
x5y75=bbd6f1
x6y75=bad4ef
x7y75=bed8f3
x8y75=c1d9f5
x9y75=c2daf6
x10y75=c2d7f2
x11y75=c3d7f0
x12y75=bfd4e9
x13y75=bed3e6
x14y75=bacfe2
x15y75=b3c9de
x16y75=a9c0d2
x17y75=b0c3d1
x18y75=a1afb8
x19y75=40494e
x20y75=25292a
x21y75=262624
x22y75=23221e
x23y75=272622
x24y75=242520
x25y75=262722
x26y75=242520
x27y75=242520
x28y75=22231e
x29y75=24231f
x30y75=262521
x31y75=262523
x32y75=252523
x33y75=282723
x34y75=292824
x35y75=272622
x36y75=252420
x37y75=23221e
x38y75=201f1a
x39y75=201f1b
x40y75=201f1b
x41y75=1f1e1a
x42y75=1f1e1a
x43y75=1e1d18
x44y75=1f1e19
x45y75=22211c
x46y75=201f1a
x47y75=21201b
x48y75=22211c
x49y75=201f1b
x50y75=23201b
x51y75=201d18
x52y75=25201a
x53y75=2d2822
x54y75=45403a
x55y75=5c554f
x56y75=5e5751
x57y75=6d6660
x58y75=6c655f
x59y75=6d6562
x60y75=706865
x61y75=67605a
x62y75=67605a
x63y75=5e5953
x64y75=3f3a34
x65y75=322f28
x66y75=2d2a21
x67y75=2d261c
x68y75=2f2b22
x69y75=3e3d39
x70y75=747877
x71y75=b3bec0
x72y75=b6c5c8
x73y75=c1ced6
x74y75=dce7ed
x75y75=ebf2f8
x76y75=edf1f4
x77y75=e3e5e4
x78y75=dcd8d5
x79y75=d7cdc4
x80y75=c9b9ac
x81y75=a28d7a
x82y75=89735e
x83y75=745e50
x84y75=69554a
x85y75=746359
x86y75=776960
x87y75=7d6f64
x88y75=786a5f
x89y75=7f6e66
x90y75=74635b
x91y75=736258
x92y75=604f45
x93y75=47392c
x94y75=392b1e
x95y75=33261d
x96y75=2d231a
x97y75=2b2219
x98y75=261d14
x99y75=231c14
x100y75=201913
x101y75=1e1613
x102y75=1d1512
x103y75=1b1612
x104y75=17140f
x105y75=18150e
x106y75=16130c
x107y75=18140b
x108y75=1f1b12
x109y75=242017
x110y75=20190f
x111y75=281e15
x112y75=34271f
x113y75=2a1d15
x114y75=22150d
x115y75=231812
x116y75=291c13
x117y75=473727
x118y75=634e39
x119y75=775d46
x120y75=83654d
x121y75=7d6149
x122y75=59402a
x123y75=29190a
x124y75=23190d
x125y75=231b10
x126y75=2f251b
x127y75=382b22
x128y75=44362b
x129y75=372920
x130y75=2f2219
x131y75=31241b
x132y75=2a1d15
x133y75=261911
x134y75=261b15
x135y75=1e1913
x136y75=1f1c17
x137y75=1c1411
x138y75=18130f
x139y75=1c1c14
x140y75=1c1c14
x141y75=221d19
x142y75=28201d
x143y75=362d28
x144y75=50453f
x145y75=625952
x146y75=685b52
x147y75=6f5d4f
x148y75=a29082
x149y75=ddcfc2
x150y75=e2d6ca
x151y75=ded4ca
x152y75=ded4c8
x153y75=ddd0c0
x154y75=dacaba
x155y75=dac9b7
x156y75=d9c7b3
x157y75=d6c3b2
x158y75=dbcaba
x159y75=ebddd0
x160y75=faf0e6
x161y75=fffbf8
x162y75=fffefd
x163y75=ffffff
x164y75=ffffff
x165y75=ffffff
x166y75=ffffff
x167y75=fefefe
x168y75=fefefe
x169y75=fefffd
x170y75=fefffd
x171y75=ffffff
x172y75=ffffff
x173y75=feffff
x174y75=feffff
x175y75=fffffd
x176y75=fffffd
x1y76=b8d3f1
x2y76=b4cfed
x3y76=b5d0ee
x4y76=bad5f2
x5y76=bbd6f1
x6y76=bad5f0
x7y76=bad5f0
x8y76=bed8f3
x9y76=bed6f2
x10y76=c2d7f4
x11y76=c1d5f0
x12y76=c2d4ec
x13y76=c3d5eb
x14y76=c3d8ed
x15y76=bed4e9
x16y76=b7cde2
x17y76=b0c7d9
x18y76=aec1d0
x19y76=a4b1ba
x20y76=4c5359
x21y76=323335
x22y76=272725
x23y76=252621
x24y76=282924
x25y76=242520
x26y76=252621
x27y76=272823
x28y76=22231e
x29y76=242520
x30y76=21221d
x31y76=222220
x32y76=252523
x33y76=272622
x34y76=1f1e1a
x35y76=21201c
x36y76=24231f
x37y76=22211d
x38y76=1f1e19
x39y76=1f1e1a
x40y76=23221e
x41y76=21201c
x42y76=201f1b
x43y76=21201b
x44y76=1f1e19
x45y76=22211d
x46y76=23221e
x47y76=201f1a
x48y76=21201b
x49y76=22211d
x50y76=25211e
x51y76=23201b
x52y76=292621
x53y76=2b2821
x54y76=38332d
x55y76=39342e
x56y76=4f4842
x57y76=58514b
x58y76=5c554f
x59y76=66615d
x60y76=534e4a
x61y76=4e4741
x62y76=4c453f
x63y76=4c453f
x64y76=35302a
x65y76=29261f
x66y76=241f19
x67y76=261f17
x68y76=2c2721
x69y76=4b4a48
x70y76=969b9e
x71y76=bfced3
x72y76=d3e4eb
x73y76=eaf7fd
x74y76=f2fbff
x75y76=fafdff
x76y76=fbfcff
x77y76=fdfdff
x78y76=f7f6f4
x79y76=e9e2da
x80y76=ddd1c3
x81y76=cbb9a3
x82y76=b29c85
x83y76=8a7363
x84y76=806a5d
x85y76=7b695d
x86y76=7f6e64
x87y76=7b6d62
x88y76=83756c
x89y76=85746c
x90y76=806f65
x91y76=746359
x92y76=625245
x93y76=4e4033
x94y76=433528
x95y76=3e3226
x96y76=3c3228
x97y76=352b22
x98y76=2f261d
x99y76=282119
x100y76=221b13
x101y76=1e1711
x102y76=1d1814
x103y76=18130f
x104y76=16130e
x105y76=16130c
x106y76=16130c
x107y76=1f1b12
x108y76=231f16
x109y76=1f1b12
x110y76=1c180f
x111y76=231c14
x112y76=271e17
x113y76=2f251c
x114y76=2b1e16
x115y76=1f120c
x116y76=20130b
x117y76=27190e
x118y76=2f1f10
x119y76=493325
x120y76=664c3d
x121y76=6d5342
x122y76=4f3a27
x123y76=302313
x124y76=2a2112
x125y76=2f2317
x126y76=2f2317
x127y76=32261a
x128y76=392d21
x129y76=30231a
x130y76=2c1f16
x131y76=2b2118
x132y76=281e15
x133y76=322721
x134y76=2c231c
x135y76=201b15
x136y76=1b1811
x137y76=1a1511
x138y76=191410
x139y76=1e1b14
x140y76=1d1a13
x141y76=1f1a16
x142y76=211c18
x143y76=27201a
x144y76=423934
x145y76=5c534c
x146y76=655c53
x147y76=6f625a
x148y76=6d6057
x149y76=83796f
x150y76=ccc2b8
x151y76=ded2c6
x152y76=ded0c3
x153y76=ddcdbd
x154y76=ddccb8
x155y76=dbc9b3
x156y76=dfceba
x157y76=eedfcc
x158y76=fef2e4
x159y76=fffaf0
x160y76=fffff8
x161y76=fffffd
x162y76=fffdfe
x163y76=ffffff
x164y76=ffffff
x165y76=fffeff
x166y76=ffffff
x167y76=ffffff
x168y76=feffff
x169y76=fefffd
x170y76=feffff
x171y76=ffffff
x172y76=ffffff
x173y76=feffff
x174y76=feffff
x175y76=ffffff
x176y76=fffffd
x1y77=b6d1ee
x2y77=b6d1ee
x3y77=b3ceeb
x4y77=b7d2ef
x5y77=bbd6f3
x6y77=bcd7f4
x7y77=bcd7f4
x8y77=b8d3f0
x9y77=bbd5f0
x10y77=bfd4f1
x11y77=c1d5f0
x12y77=c3d7f0
x13y77=c1d5ee
x14y77=bfd5ec
x15y77=bfd4e9
x16y77=bbd1e6
x17y77=bad0e5
x18y77=bacfe2
x19y77=b2c3d3
x20y77=9fabb7
x21y77=3c4349
x22y77=2c3031
x23y77=242625
x24y77=262722
x25y77=272823
x26y77=23241e
x27y77=252420
x28y77=22231e
x29y77=21211f
x30y77=222220
x31y77=222220
x32y77=232220
x33y77=23221e
x34y77=24231f
x35y77=252420
x36y77=22211d
x37y77=23221e
x38y77=252420
x39y77=22211c
x40y77=25241f
x41y77=22211c
x42y77=201f1a
x43y77=21201c
x44y77=21201c
x45y77=22211c
x46y77=23221d
x47y77=1f1e19
x48y77=22211c
x49y77=221f1a
x50y77=23201b
x51y77=292621
x52y77=26231e
x53y77=2e2b24
x54y77=2f2a24
x55y77=36312b
x56y77=39342e
x57y77=37322c
x58y77=433e38
x59y77=3f3734
x60y77=39312e
x61y77=3e3731
x62y77=3c352f
x63y77=362f27
x64y77=302923
x65y77=2e2923
x66y77=27221c
x67y77=251e16
x68y77=2d2620
x69y77=605c5d
x70y77=acafb4
x71y77=c2cfd7
x72y77=ddecf3
x73y77=f4fdff
x74y77=fcffff
x75y77=feffff
x76y77=fefeff
x77y77=fffeff
x78y77=fefdfb
x79y77=fffaf6
x80y77=f4eae0
x81y77=e2d3c0
x82y77=dbc7af
x83y77=ae9883
x84y77=8f7866
x85y77=867063
x86y77=89776b
x87y77=7e6d65
x88y77=8a7c73
x89y77=827169
x90y77=837268
x91y77=7c6a60
x92y77=706053
x93y77=605245
x94y77=4b3d30
x95y77=44382c
x96y77=3e3428
x97y77=342a20
x98y77=31281f
x99y77=251e14
x100y77=261f17
x101y77=251e16
x102y77=1e1913
x103y77=1a150f
x104y77=17140d
x105y77=17140d
x106y77=201b15
x107y77=4b443e
x108y77=342d27
x109y77=1b1610
x110y77=1a150f
x111y77=1b1811
x112y77=19150c
x113y77=281f16
x114y77=46382f
x115y77=462d26
x116y77=341912
x117y77=230f06
x118y77=210e07
x119y77=2a1912
x120y77=3c2b23
x121y77=635147
x122y77=58463a
x123y77=47392c
x124y77=433528
x125y77=443226
x126y77=4b392f
x127y77=392b20
x128y77=30261a
x129y77=271d13
x130y77=261c13
x131y77=2a1f19
x132y77=2d221c
x133y77=2d241d
x134y77=332c24
x135y77=211a10
x136y77=1c180f
x137y77=1b1610
x138y77=1c1711
x139y77=1f1810
x140y77=221b15
x141y77=201b17
x142y77=211c18
x143y77=26231c
x144y77=343027
x145y77=453e34
x146y77=51493e
x147y77=5a4f49
x148y77=5d5048
x149y77=5c4f46
x150y77=6c5e53
x151y77=bfafa0
x152y77=dac9b7
x153y77=ddcdb6
x154y77=e2d0b8
x155y77=f0dfc5
x156y77=fcedd6
x157y77=fffae7
x158y77=fffef2
x159y77=fffef7
x160y77=fffffb
x161y77=fffffd
x162y77=fffffd
x163y77=ffffff
x164y77=ffffff
x165y77=fefeff
x166y77=ffffff
x167y77=ffffff
x168y77=fffffd
x169y77=ffffff
x170y77=ffffff
x171y77=ffffff
x172y77=ffffff
x173y77=ffffff
x174y77=feffff
x175y77=fffffd
x176y77=fefffd
x1y78=b7d2ef
x2y78=b6d1ee
x3y78=b6d0eb
x4y78=b6d0eb
x5y78=bad3f1
x6y78=bad5f2
x7y78=b7d2ef
x8y78=b5cfea
x9y78=b7cfeb
x10y78=bdd2ef
x11y78=c1d6f1
x12y78=c6dbf6
x13y78=bdd2ed
x14y78=c2d8f0
x15y78=c0d4ec
x16y78=bfd4e9
x17y78=bdd1e9
x18y78=bbcfe7
x19y78=bfd1e5
x20y78=becede
x21y78=a0acb8
x22y78=3a4149
x23y78=252a2d
x24y78=242625
x25y78=242520
x26y78=22231e
x27y78=282723
x28y78=23241f
x29y78=21211f
x30y78=232321
x31y78=232321
x32y78=21201c
x33y78=23221e
x34y78=24231f
x35y78=24231e
x36y78=25241f
x37y78=23221e
x38y78=23221e
x39y78=24231e
x40y78=24231e
x41y78=21201b
x42y78=21201b
x43y78=21201c
x44y78=22211d
x45y78=21201b
x46y78=22211c
x47y78=21201b
x48y78=22211c
x49y78=24211c
x50y78=221f1a
x51y78=272621
x52y78=312e27
x53y78=2a2720
x54y78=2b2620
x55y78=2f2a24
x56y78=322d27
x57y78=2b2620
x58y78=27221c
x59y78=2f2724
x60y78=342d27
x61y78=342d27
x62y78=352e26
x63y78=3e352e
x64y78=362f27
x65y78=27221c
x66y78=2d2822
x67y78=322b23
x68y78=38312b
x69y78=575151
x70y78=999a9e
x71y78=c5d0d6
x72y78=e2eff5
x73y78=fbffff
x74y78=feffff
x75y78=fefefe
x76y78=fffeff
x77y78=fffeff
x78y78=fffdfe
x79y78=fffefb
x80y78=fff9f1
x81y78=f8ecdc
x82y78=e5d4c0
x83y78=d7c1aa
x84y78=b29983
x85y78=7f6856
x86y78=7e685a
x87y78=87766c
x88y78=8a7c73
x89y78=7f6e64
x90y78=847467
x91y78=827064
x92y78=726255
x93y78=65544a
x94y78=53453a
x95y78=45392d
x96y78=3a3024
x97y78=31281f
x98y78=2d241b
x99y78=2c251b
x100y78=282117
x101y78=241d13
x102y78=211a12
x103y78=1b170e
x104y78=1e1913
x105y78=1d1a13
x106y78=1c1711
x107y78=1f1812
x108y78=251e18
x109y78=1a150f
x110y78=19160f
x111y78=17140d
x112y78=17140d
x113y78=1a130b
x114y78=22150d
x115y78=432a23
x116y78=5f423c
x117y78=4f342d
x118y78=341b14
x119y78=2e1510
x120y78=29120c
x121y78=2f1812
x122y78=443228
x123y78=53453a
x124y78=534238
x125y78=533d32
x126y78=5f493c
x127y78=453526
x128y78=2b1f11
x129y78=2a1e12
x130y78=2e2118
x131y78=2f2219
x132y78=291f16
x133y78=281e15
x134y78=281f16
x135y78=251e14
x136y78=20190f
x137y78=1e1a11
x138y78=211a14
x139y78=281f18
x140y78=32281f
x141y78=2d221c
x142y78=281f18
x143y78=252118
x144y78=2a261d
x145y78=393327
x146y78=4c433a
x147y78=3a312a
x148y78=342923
x149y78=60534b
x150y78=675b4f
x151y78=4a3c2f
x152y78=b1a191
x153y78=e2d1bd
x154y78=f1dfc7
x155y78=f8e4c9
x156y78=ffefd5
x157y78=fff5df
x158y78=fffcec
x159y78=fffff6
x160y78=fffef9
x161y78=fefff9
x162y78=fefffa
x163y78=ffffff
x164y78=ffffff
x165y78=ffffff
x166y78=ffffff
x167y78=fffeff
x168y78=fffefc
x169y78=ffffff
x170y78=ffffff
x171y78=ffffff
x172y78=ffffff
x173y78=ffffff
x174y78=fffffd
x175y78=fffffb
x176y78=fffffb
x1y79=b1cce7
x2y79=afcae5
x3y79=b2cdea
x4y79=b3cde8
x5y79=b6d0eb
x6y79=b8d0ec
x7y79=b5cde9
x8y79=b9cee9
x9y79=bbd0eb
x10y79=c1d6f1
x11y79=c3d8f5
x12y79=bdd5f1
x13y79=bfd7f1
x14y79=bcd4ee
x15y79=bed4ec
x16y79=c2d6ef
x17y79=c1d3eb
x18y79=c5d7ef
x19y79=bdcfe7
x20y79=bacce2
x21y79=bccddf
x22y79=a8b6c3
x23y79=656e75
x24y79=2e3235
x25y79=242424
x26y79=23221e
x27y79=23241f
x28y79=252621
x29y79=22231e
x30y79=22231e
x31y79=1f201b
x32y79=252620
x33y79=201f1a
x34y79=25241f
x35y79=24231e
x36y79=24231e
x37y79=25241f
x38y79=24231e
x39y79=22211c
x40y79=22211c
x41y79=21201b
x42y79=201f1a
x43y79=201f1a
x44y79=1f1e19
x45y79=1e1d18
x46y79=201f1a
x47y79=201f1a
x48y79=1e1d18
x49y79=211e19
x50y79=211e19
x51y79=24211a
x52y79=2b2821
x53y79=24211a
x54y79=242118
x55y79=29261f
x56y79=24211a
x57y79=28231d
x58y79=25201a
x59y79=231e18
x60y79=2c251f
x61y79=3a332d
x62y79=443b34
x63y79=443b34
x64y79=483f38
x65y79=3c352d
x66y79=27231a
x67y79=241d15
x68y79=2e271f
x69y79=4e4643
x70y79=938f8e
x71y79=c6cbce
x72y79=e8f0f3
x73y79=fafeff
x74y79=fdfffe
x75y79=feffff
x76y79=ffffff
x77y79=fffeff
x78y79=fffffd
x79y79=fffffd
x80y79=fffffa
x81y79=fff7ee
x82y79=f3e3d4
x83y79=e4ceb7
x84y79=c4aa91
x85y79=7b614a
x86y79=6f5944
x87y79=837163
x88y79=7b6d62
x89y79=857568
x90y79=88786b
x91y79=8a786c
x92y79=837366
x93y79=6e5d53
x94y79=574940
x95y79=483b32
x96y79=362c23
x97y79=30271e
x98y79=2e251c
x99y79=2f281e
x100y79=2d271b
x101y79=2b2318
x102y79=281f16
x103y79=2a2118
x104y79=2b241c
x105y79=201b15
x106y79=1b1610
x107y79=1c1711
x108y79=1a1710
x109y79=1b1811
x110y79=1b1811
x111y79=18150e
x112y79=131009
x113y79=1c150f
x114y79=1a110a
x115y79=231812
x116y79=35221b
x117y79=65473f
x118y79=724a42
x119y79=63372c
x120y79=4d2219
x121y79=341209
x122y79=2d120b
x123y79=311e18
x124y79=625149
x125y79=665247
x126y79=6b5849
x127y79=52402c
x128y79=382715
x129y79=362416
x130y79=39291c
x131y79=39291c
x132y79=342619
x133y79=35271c
x134y79=30261c
x135y79=281f16
x136y79=211a12
x137y79=201b15
x138y79=2a231b
x139y79=574d44
x140y79=a09287
x141y79=917b70
x142y79=725e53
x143y79=53463d
x144y79=564d44
x145y79=898077
x146y79=a49b94
x147y79=564d48
x148y79=382f2a
x149y79=3e352e
x150y79=2c251d
x151y79=231f14
x152y79=322a1d
x153y79=877a6a
x154y79=e7d5c1
x155y79=f8e0c6
x156y79=fee6ca
x157y79=ffedd2
x158y79=fff5db
x159y79=fffbe8
x160y79=fffff3
x161y79=fffff6
x162y79=fffffa
x163y79=fffffd
x164y79=ffffff
x165y79=feffff
x166y79=feffff
x167y79=ffffff
x168y79=ffffff
x169y79=fffffd
x170y79=fffffd
x171y79=ffffff
x172y79=fffffd
x173y79=fffffd
x174y79=fffffb
x175y79=fffffa
x176y79=fffff7
x1y80=b2cce7
x2y80=b2cde8
x3y80=afc9e4
x4y80=b0cae5
x5y80=b5cde7
x6y80=b5cae5
x7y80=b8cde8
x8y80=b6cae5
x9y80=b8cde8
x10y80=bacfea
x11y80=b6ceea
x12y80=b9d1eb
x13y80=bbd3ed
x14y80=bcd4ee
x15y80=bfd4ef
x16y80=bed2eb
x17y80=c1d3eb
x18y80=bbcde3
x19y80=bdd1e9
x20y80=bacee6
x21y80=b9cee3
x22y80=bacdde
x23y80=bfcbd9
x24y80=abb4bd
x25y80=5c6165
x26y80=303133
x27y80=212322
x28y80=222421
x29y80=242520
x30y80=21221d
x31y80=262721
x32y80=21221c
x33y80=24231e
x34y80=22211c
x35y80=22211c
x36y80=21201b
x37y80=22211c
x38y80=25241f
x39y80=23221d
x40y80=25241f
x41y80=24231e
x42y80=1d1c17
x43y80=201f1a
x44y80=201f1a
x45y80=21201b
x46y80=23221d
x47y80=21201b
x48y80=24211c
x49y80=27241f
x50y80=24211c
x51y80=24211a
x52y80=24211a
x53y80=232019
x54y80=28251c
x55y80=26231c
x56y80=24211a
x57y80=27221c
x58y80=25201a
x59y80=241f19
x60y80=27221c
x61y80=282119
x62y80=352c25
x63y80=3a312a
x64y80=372e25
x65y80=2f261f
x66y80=2a231b
x67y80=2a231b
x68y80=2d261e
x69y80=4c433c
x70y80=7b7672
x71y80=b5b7b6
x72y80=e6eaeb
x73y80=fdfeff
x74y80=feffff
x75y80=ffffff
x76y80=ffffff
x77y80=fefefc
x78y80=fffffd
x79y80=fefffd
x80y80=fffffb
x81y80=fffefa
x82y80=fcefe6
x83y80=ebd6c3
x84y80=d6bea6
x85y80=b49a81
x86y80=7f6650
x87y80=857261
x88y80=6b594b
x89y80=87776a
x90y80=857568
x91y80=89796a
x92y80=7f6f62
x93y80=76655b
x94y80=61534a
x95y80=45382f
x96y80=382e24
x97y80=342a21
x98y80=352b22
x99y80=332b20
x100y80=2e261b
x101y80=2b2318
x102y80=2e261b
x103y80=30271e
x104y80=2d261c
x105y80=231f16
x106y80=1c1711
x107y80=1b1811
x108y80=18150e
x109y80=1b1811
x110y80=1e1e16
x111y80=232019
x112y80=17140d
x113y80=17120c
x114y80=1b1610
x115y80=19160f
x116y80=261b15
x117y80=422924
x118y80=5a352d
x119y80=73473c
x120y80=6f4338
x121y80=59372e
x122y80=3c211a
x123y80=2c1913
x124y80=4f3e37
x125y80=6a584e
x126y80=796657
x127y80=6b5643
x128y80=5f4a37
x129y80=4c3726
x130y80=493627
x131y80=412e1f
x132y80=402e20
x133y80=3d2d20
x134y80=35291d
x135y80=2c2219
x136y80=231a13
x137y80=1e1711
x138y80=221b13
x139y80=60564c
x140y80=c7b9ae
x141y80=9e887b
x142y80=5d493e
x143y80=31241b
x144y80=282119
x145y80=2b241c
x146y80=6c655f
x147y80=352d2a
x148y80=322d29
x149y80=2e2721
x150y80=27221c
x151y80=212119
x152y80=221f16
x153y80=31271d
x154y80=605041
x155y80=b9a48f
x156y80=ebd5bd
x157y80=fbe6cb
x158y80=fbeace
x159y80=fdf1d7
x160y80=fff7e2
x161y80=fffce9
x162y80=fffff2
x163y80=fffef7
x164y80=fffffb
x165y80=ffffff
x166y80=feffff
x167y80=ffffff
x168y80=ffffff
x169y80=ffffff
x170y80=ffffff
x171y80=fefffd
x172y80=fffffb
x173y80=fffffa
x174y80=fffff8
x175y80=fffff3
x176y80=fffff2
x1y81=b4cce8
x2y81=b3cde8
x3y81=b2cae6
x4y81=b4cce6
x5y81=b5cde7
x6y81=b6cbe6
x7y81=b6cbe6
x8y81=b7cce7
x9y81=b8cde8
x10y81=b5cae5
x11y81=b6cee8
x12y81=bad2ec
x13y81=bcd1ec
x14y81=b9cfe7
x15y81=bcd2ea
x16y81=b7cbe4
x17y81=bacce4
x18y81=bacce2
x19y81=c0d4ec
x20y81=b7cbe3
x21y81=bbcfe7
x22y81=b6cae2
x23y81=b9c9e0
x24y81=bbcadd
x25y81=b9c5d3
x26y81=7f8a90
x27y81=31393b
x28y81=202423
x29y81=222421
x30y81=20211c
x31y81=24231f
x32y81=24231f
x33y81=22211c
x34y81=23221d
x35y81=21221a
x36y81=24251d
x37y81=24231e
x38y81=22211c
x39y81=211e19
x40y81=25241f
x41y81=1f201a
x42y81=1d1e18
x43y81=1c1d17
x44y81=1f1e19
x45y81=22221a
x46y81=24211c
x47y81=27241f
x48y81=272320
x49y81=292621
x50y81=22211c
x51y81=211e19
x52y81=221f18
x53y81=26211b
x54y81=2b2620
x55y81=2d2920
x56y81=28241b
x57y81=29261f
x58y81=27241d
x59y81=28251e
x60y81=27221c
x61y81=231e18
x62y81=2a231b
x63y81=2e251e
x64y81=332a23
x65y81=362d26
x66y81=342923
x67y81=32281f
x68y81=3b3128
x69y81=615650
x70y81=7c7471
x71y81=a8a7a5
x72y81=cfd0d2
x73y81=f7f7f9
x74y81=ffffff
x75y81=fffeff
x76y81=fffeff
x77y81=fffffd
x78y81=fefffd
x79y81=fdfffe
x80y81=fffffd
x81y81=fffefc
x82y81=fffcf6
x83y81=f7e9dc
x84y81=e7d5c1
x85y81=dbc2ac
x86y81=bca18c
x87y81=866d59
x88y81=715a4a
x89y81=867466
x90y81=857568
x91y81=837364
x92y81=807063
x93y81=847369
x94y81=6f5e56
x95y81=54463b
x96y81=4b3d32
x97y81=44362d
x98y81=43352c
x99y81=392d21
x100y81=2e2418
x101y81=282015
x102y81=292317
x103y81=352e24
x104y81=252116
x105y81=242017
x106y81=211d14
x107y81=1c1711
x108y81=1b1811
x109y81=19160f
x110y81=15120b
x111y81=14140c
x112y81=16160e
x113y81=14130e
x114y81=14130e
x115y81=16130e
x116y81=18130f
x117y81=251a16
x118y81=372823
x119y81=49352c
x120y81=614b40
x121y81=60483e
x122y81=4e372f
x123y81=301d16
x124y81=23120a
x125y81=3c2922
x126y81=6a584e
x127y81=7e6b5c
x128y81=776251
x129y81=685340
x130y81=614c3b
x131y81=493628
x132y81=48362a
x133y81=4c3c2f
x134y81=382a1d
x135y81=34271e
x136y81=2a2017
x137y81=241b14
x138y81=231a13
x139y81=332a21
x140y81=4b4338
x141y81=352b1f
x142y81=271f14
x143y81=1d1a11
x144y81=191911
x145y81=1f1c17
x146y81=23201b
x147y81=24211c
x148y81=26231e
x149y81=28231f
x150y81=24211c
x151y81=25221d
x152y81=28251e
x153y81=342f29
x154y81=443b32
x155y81=50463a
x156y81=726555
x157y81=b0a18c
x158y81=e1cfb7
x159y81=f3e2c6
x160y81=fbeacc
x161y81=fff2d7
x162y81=fff4de
x163y81=fffeec
x164y81=fffff3
x165y81=fffff8
x166y81=fefffb
x167y81=ffffff
x168y81=ffffff
x169y81=ffffff
x170y81=feffff
x171y81=feffff
x172y81=fffffb
x173y81=fffff6
x174y81=fffff3
x175y81=fffeeb
x176y81=fdfbe6
x1y82=b6ceea
x2y82=b5cde7
x3y82=b6cee8
x4y82=b4cce6
x5y82=bbd0eb
x6y82=b9cfe7
x7y82=b9cee9
x8y82=b8cee6
x9y82=b8cde8
x10y82=b7cde5
x11y82=b6cee8
x12y82=b7cfe7
x13y82=b7cde5
x14y82=b8cee6
x15y82=b9cfe7
x16y82=b8cce4
x17y82=bbcfe7
x18y82=bed0e6
x19y82=bed2ea
x20y82=bacee6
x21y82=b9cde5
x22y82=b8cce4
x23y82=b7cbe3
x24y82=b7c9df
x25y82=b7c8da
x26y82=bcccd9
x27y82=adbac2
x28y82=576163
x29y82=232929
x30y82=212322
x31y82=20201e
x32y82=24231f
x33y82=21201b
x34y82=22211c
x35y82=22231d
x36y82=22231d
x37y82=23221d
x38y82=21201b
x39y82=23221d
x40y82=201f1a
x41y82=1c1d17
x42y82=1e1f19
x43y82=1c1d17
x44y82=212119
x45y82=23231b
x46y82=24211a
x47y82=25221d
x48y82=272320
x49y82=201f1a
x50y82=22211c
x51y82=221f1a
x52y82=221f1a
x53y82=241f19
x54y82=2c251f
x55y82=2e2a21
x56y82=2a261d
x57y82=28251e
x58y82=2c2922
x59y82=2b2821
x60y82=25221b
x61y82=2b2620
x62y82=28231d
x63y82=29221a
x64y82=342b24
x65y82=392f26
x66y82=3b3128
x67y82=342a21
x68y82=3b3128
x69y82=544943
x70y82=716a64
x71y82=938f8c
x72y82=c9c9c7
x73y82=eeeeee
x74y82=ffffff
x75y82=fffeff
x76y82=fffeff
x77y82=fefefe
x78y82=fefffd
x79y82=feffff
x80y82=fefefe
x81y82=fffeff
x82y82=fffffa
x83y82=fef8ec
x84y82=f5e9d9
x85y82=ebd6c3
x86y82=dac1ab
x87y82=b39883
x88y82=896e5b
x89y82=846f5e
x90y82=857464
x91y82=827263
x92y82=88786b
x93y82=8c7c6f
x94y82=79685e
x95y82=5e5045
x96y82=5c4e43
x97y82=584a3f
x98y82=4d3f34
x99y82=3e3226
x100y82=362c20
x101y82=30281d
x102y82=2a2418
x103y82=2a2319
x104y82=252116
x105y82=27231a
x106y82=242017
x107y82=2d2822
x108y82=1f1a14
x109y82=19160f
x110y82=15120b
x111y82=17170f
x112y82=15150d
x113y82=161510
x114y82=161510
x115y82=161510
x116y82=16130e
x117y82=14130e
x118y82=191611
x119y82=201911
x120y82=30261d
x121y82=4b3d32
x122y82=635147
x123y82=513f35
x124y82=39261f
x125y82=34211a
x126y82=3d2922
x127y82=523e33
x128y82=7b6558
x129y82=846f5e
x130y82=816e5d
x131y82=4e3c2e
x132y82=837165
x133y82=7a6a5d
x134y82=433228
x135y82=392b20
x136y82=35281f
x137y82=372d24
x138y82=2d241d
x139y82=272018
x140y82=29251c
x141y82=1f1b12
x142y82=1c1910
x143y82=15160e
x144y82=161711
x145y82=161712
x146y82=181713
x147y82=14130f
x148y82=1b1714
x149y82=1f1c17
x150y82=221f1a
x151y82=282520
x152y82=302d28
x153y82=383530
x154y82=423f3a
x155y82=48433d
x156y82=544b42
x157y82=4e4236
x158y82=5c4f3e
x159y82=a6967f
x160y82=dfcfb5
x161y82=efdfc6
x162y82=f5e6cf
x163y82=faefdb
x164y82=fff9e7
x165y82=fefbec
x166y82=fffff4
x167y82=fffffa
x168y82=fffffb
x169y82=fffffd
x170y82=fdfffc
x171y82=fffffb
x172y82=fffff8
x173y82=fffff2
x174y82=fffeed
x175y82=fffbe5
x176y82=fffae0
x1y83=b7cce7
x2y83=b9cee9
x3y83=b6cbe6
x4y83=b8cee6
x5y83=b8cce5
x6y83=bed2ea
x7y83=b9cde6
x8y83=bcd0e8
x9y83=b9cfe7
x10y83=b7cde4
x11y83=b5cbe3
x12y83=b8cee5
x13y83=bad0e7
x14y83=b4cae1
x15y83=b9cde5
x16y83=b7cbe3
x17y83=bacee6
x18y83=b8cce4
x19y83=bccee6
x20y83=bacce4
x21y83=bed0e6
x22y83=bdcfe5
x23y83=b6c8dc
x24y83=b6c8dc
x25y83=b7ccdd
x26y83=b5cadb
x27y83=bdd0df
x28y83=b8c8d5
x29y83=909da6
x30y83=394046
x31y83=28292b
x32y83=292927
x33y83=23241f
x34y83=262721
x35y83=23221e
x36y83=23221e
x37y83=24251f
x38y83=21221c
x39y83=1f201a
x40y83=1c1b16
x41y83=22211c
x42y83=201f1a
x43y83=202018
x44y83=25251d
x45y83=212119
x46y83=25251d
x47y83=24231e
x48y83=21201b
x49y83=1f1e1a
x50y83=1e1d19
x51y83=1e1b16
x52y83=1e1b16
x53y83=26211b
x54y83=28231d
x55y83=2a261d
x56y83=29251c
x57y83=2e2a21
x58y83=2c281f
x59y83=2c281f
x60y83=2d2920
x61y83=29251c
x62y83=29251c
x63y83=29251c
x64y83=312a20
x65y83=392f25
x66y83=382e24
x67y83=382f28
x68y83=39322a
x69y83=423b35
x70y83=635c56
x71y83=8f8a86
x72y83=c6c5c1
x73y83=efefed
x74y83=feffff
x75y83=fefeff
x76y83=fefefe
x77y83=ffffff
x78y83=fefefe
x79y83=ffffff
x80y83=fffeff
x81y83=fffefc
x82y83=fffef9
x83y83=fffef5
x84y83=fef8ea
x85y83=f2e2d2
x86y83=e6d1bc
x87y83=d7bfa5
x88y83=b3997e
x89y83=8e745d
x90y83=7a614d
x91y83=786556
x92y83=807061
x93y83=8e7e6f
x94y83=6f5f50
x95y83=76685d
x96y83=716358
x97y83=6c5e53
x98y83=52463a
x99y83=493d31
x100y83=3a3024
x101y83=332b20
x102y83=2e261b
x103y83=2f271c
x104y83=2b2519
x105y83=2f281e
x106y83=443d33
x107y83=2e2a21
x108y83=1b170e
x109y83=17140d
x110y83=17140d
x111y83=161510
x112y83=181712
x113y83=171611
x114y83=171611
x115y83=15150d
x116y83=15150d
x117y83=171810
x118y83=181911
x119y83=181810
x120y83=1f1b12
x121y83=2f271c
x122y83=493b30
x123y83=554339
x124y83=533c34
x125y83=351e16
x126y83=2c150f
x127y83=341d17
x128y83=463229
x129y83=635145
x130y83=645445
x131y83=463929
x132y83=a19484
x133y83=97867c
x134y83=57463c
x135y83=45342a
x136y83=3f3126
x137y83=3d3329
x138y83=2a231b
x139y83=231e1a
x140y83=211d1a
x141y83=1d1c18
x142y83=191814
x143y83=171612
x144y83=13140f
x145y83=131510
x146y83=141611
x147y83=1b1b19
x148y83=191816
x149y83=191814
x150y83=1b1a15
x151y83=1d1c17
x152y83=202018
x153y83=23221d
x154y83=2a2722
x155y83=322d29
x156y83=403933
x157y83=423b33
x158y83=463f37
x159y83=453e34
x160y83=4c4439
x161y83=6c6256
x162y83=837767
x163y83=a1927f
x164y83=cdbea9
x165y83=f4e5d0
x166y83=fff9e3
x167y83=fffeeb
x168y83=fffff1
x169y83=fffff3
x170y83=fffff6
x171y83=fffff3
x172y83=fffff2
x173y83=ffffee
x174y83=fffce8
x175y83=fff8df
x176y83=fff6dc
x1y84=b8cde8
x2y84=bcd2ea
x3y84=c1d7ef
x4y84=bcd2e9
x5y84=bdd1e9
x6y84=b9cde5
x7y84=b8cce4
x8y84=bbcfe7
x9y84=b9cde5
x10y84=b8cee5
x11y84=b5cbe2
x12y84=b6cce3
x13y84=b5cbe2
x14y84=b8cee3
x15y84=b6cae2
x16y84=b9cee3
x17y84=bbcfe7
x18y84=b6cae2
x19y84=bccee6
x20y84=bacce2
x21y84=bbcbe2
x22y84=bdcee2
x23y84=bbcde1
x24y84=bacce0
x25y84=b3c8db
x26y84=b8cde0
x27y84=b9cee3
x28y84=b9cbdf
x29y84=becedd
x30y84=b7c1cb
x31y84=70777d
x32y84=2f3334
x33y84=262825
x34y84=252621
x35y84=242321
x36y84=24231f
x37y84=242520
x38y84=24251f
x39y84=20211b
x40y84=25241f
x41y84=292621
x42y84=29261f
x43y84=2a271e
x44y84=26261c
x45y84=24241c
x46y84=25251d
x47y84=212119
x48y84=21201b
x49y84=1e1d18
x50y84=1e1b16
x51y84=211e19
x52y84=23201b
x53y84=27221c
x54y84=28231d
x55y84=2a261d
x56y84=302c23
x57y84=2d2920
x58y84=2e2a21
x59y84=2f2b22
x60y84=3b372e
x61y84=312d24
x62y84=322e25
x63y84=332f26
x64y84=373026
x65y84=3f352b
x66y84=3f352b
x67y84=352e26
x68y84=2a251f
x69y84=2c2721
x70y84=3b3630
x71y84=736e68
x72y84=d3d0c9
x73y84=f3f2ee
x74y84=fffffd
x75y84=feffff
x76y84=feffff
x77y84=fefefe
x78y84=ffffff
x79y84=fffdfe
x80y84=fffeff
x81y84=fffffd
x82y84=fffefa
x83y84=fffffa
x84y84=fffef3
x85y84=fbf2e3
x86y84=f0e1cc
x87y84=e7d3ba
x88y84=d8c0a4
x89y84=bba085
x90y84=896f56
x91y84=7b6452
x92y84=7c6958
x93y84=827360
x94y84=817161
x95y84=7d6f62
x96y84=73655a
x97y84=6f6357
x98y84=5f5347
x99y84=55493d
x100y84=413529
x101y84=30261c
x102y84=362e23
x103y84=342c21
x104y84=362e23
x105y84=3b342a
x106y84=373026
x107y84=201c13
x108y84=1e1a11
x109y84=1c1912
x110y84=1b1811
x111y84=171611
x112y84=171611
x113y84=171611
x114y84=181712
x115y84=16160e
x116y84=15150d
x117y84=16170f
x118y84=161711
x119y84=161711
x120y84=191911
x121y84=231f16
x122y84=292017
x123y84=392b22
x124y84=49362f
x125y84=4c382f
x126y84=402921
x127y84=361e14
x128y84=351f14
x129y84=523c2f
x130y84=5f4c3d
x131y84=433421
x132y84=746454
x133y84=7c6b61
x134y84=6f5e56
x135y84=625147
x136y84=423429
x137y84=352b1f
x138y84=271e15
x139y84=241c19
x140y84=221d1a
x141y84=1f1b18
x142y84=201f1b
x143y84=201c19
x144y84=1f1e1a
x145y84=1a1b16
x146y84=151712
x147y84=1c1c1a
x148y84=1a1a18
x149y84=191814
x150y84=1a1914
x151y84=1c1b16
x152y84=1a1a12
x153y84=1e1d18
x154y84=1f1e19
x155y84=26231e
x156y84=2c2723
x157y84=2d2824
x158y84=312e29
x159y84=2b2724
x160y84=2d2a25
x161y84=3a352f
x162y84=4a4237
x163y84=55473a
x164y84=584936
x165y84=7c6b57
x166y84=d0c1ac
x167y84=f8f0db
x168y84=fffae6
x169y84=ffffec
x170y84=ffffed
x171y84=fffeed
x172y84=fffdea
x173y84=fffde6
x174y84=fff9e1
x175y84=fff4da
x176y84=fff3d8
x1y85=bacee7
x2y85=bcd0e8
x3y85=bed2ea
x4y85=bcd1e6
x5y85=bccee4
x6y85=bccee4
x7y85=b7c9df
x8y85=b7cce1
x9y85=b7cce1
x10y85=b7cce1
x11y85=b3c8dd
x12y85=b6cbe0
x13y85=b9cee3
x14y85=b2c7da
x15y85=b7c9df
x16y85=bbcde1
x17y85=b8cde2
x18y85=bbd0e5
x19y85=b4c9de
x20y85=b4c9de
x21y85=b3c5db
x22y85=b5c7dd
x23y85=b5c7dd
x24y85=b6c8de
x25y85=b4c6dc
x26y85=b3c5db
x27y85=b7c9df
x28y85=bccde1
x29y85=b8c9db
x30y85=bdcddc
x31y85=bcc8d4
x32y85=929ba2
x33y85=3b3f42
x34y85=303231
x35y85=2d2d2b
x36y85=2b2c27
x37y85=2a2925
x38y85=2e2d29
x39y85=34332f
x40y85=322f2a
x41y85=322f2a
x42y85=2f2c25
x43y85=302d24
x44y85=29261d
x45y85=25221b
x46y85=26231c
x47y85=2a2720
x48y85=27241d
x49y85=27241d
x50y85=241f19
x51y85=28231d
x52y85=27221c
x53y85=27241d
x54y85=2a2720
x55y85=2f2a24
x56y85=332e28
x57y85=302b25
x58y85=302b25
x59y85=332c24
x60y85=352e26
x61y85=352e24
x62y85=3c352b
x63y85=2e2a1f
x64y85=3a3428
x65y85=41392c
x66y85=42382e
x67y85=332c22
x68y85=25201a
x69y85=241f19
x70y85=231e18
x71y85=2d2822
x72y85=6c685f
x73y85=c6c3bc
x74y85=e4e3de
x75y85=f6f7f2
x76y85=fdfffc
x77y85=feffff
x78y85=fefeff
x79y85=fffeff
x80y85=fffeff
x81y85=fefeff
x82y85=fffeff
x83y85=fffffd
x84y85=fffef7
x85y85=fffeef
x86y85=fbf4e1
x87y85=f1e2cd
x88y85=e7d3bb
x89y85=dec4a9
x90y85=c6ab8e
x91y85=9d856b
x92y85=7a664e
x93y85=74634f
x94y85=7a6d5c
x95y85=7c6c5d
x96y85=786a5d
x97y85=706456
x98y85=55493b
x99y85=53473b
x100y85=403428
x101y85=3f352b
x102y85=342a20
x103y85=362e23
x104y85=372f24
x105y85=322c20
x106y85=262014
x107y85=242015
x108y85=242015
x109y85=1f1c13
x110y85=1b1811
x111y85=1a1712
x112y85=1a1914
x113y85=171612
x114y85=181712
x115y85=171611
x116y85=181712
x117y85=171611
x118y85=161510
x119y85=181712
x120y85=191813
x121y85=1b1813
x122y85=1b1813
x123y85=231e18
x124y85=332c24
x125y85=493c33
x126y85=5b483a
x127y85=543a29
x128y85=533722
x129y85=775843
x130y85=8b6f59
x131y85=745c44
x132y85=5a4530
x133y85=68564a
x134y85=413028
x135y85=695b52
x136y85=64584c
x137y85=473b2f
x138y85=33261d
x139y85=2c211b
x140y85=271e19
x141y85=2a231b
x142y85=29221a
x143y85=29241e
x144y85=28231f
x145y85=2d2926
x146y85=353430
x147y85=343331
x148y85=23221e
x149y85=201d18
x150y85=1e1b16
x151y85=1d1a15
x152y85=1b1a15
x153y85=1a1915
x154y85=1e1d19
x155y85=1f1e19
x156y85=25221d
x157y85=241f19
x158y85=26231c
x159y85=26231e
x160y85=25241f
x161y85=2c2924
x162y85=302b25
x163y85=342d23
x164y85=3a3026
x165y85=3b2e25
x166y85=483a2f
x167y85=ab9e8d
x168y85=ede2cc
x169y85=fff9df
x170y85=fffce2
x171y85=fffbe6
x172y85=fff8e1
x173y85=fef7db
x174y85=fff8db
x175y85=fdf4d7
x176y85=fdf2d6
x1y86=bbcfe7
x2y86=b9cee3
x3y86=b8cde2
x4y86=b9cbdf
x5y86=bbcde3
x6y86=bdcfe3
x7y86=bbcde1
x8y86=bacce0
x9y86=b7c9dd
x10y86=b5cadd
x11y86=b4c6dc
x12y86=b4c9dc
x13y86=b6c8dc
x14y86=b9cbdf
x15y86=b3c5d9
x16y86=b7c9dd
x17y86=b8cade
x18y86=b0c5d8
x19y86=b5c7db
x20y86=b6c8dc
x21y86=b3c5d9
x22y86=b8cade
x23y86=b4c6dc
x24y86=b7c9df
x25y86=b6c8de
x26y86=b3c4d8
x27y86=bbcce0
x28y86=c2d1e6
x29y86=bfcee1
x30y86=bbcbdb
x31y86=c1d1e0
x32y86=bfcbd7
x33y86=a3aab2
x34y86=363a3d
x35y86=252525
x36y86=282924
x37y86=2a2925
x38y86=34332f
x39y86=383733
x40y86=44413c
x41y86=49463f
x42y86=3e3b34
x43y86=38332d
x44y86=37342d
x45y86=36312b
x46y86=342f29
x47y86=363229
x48y86=302921
x49y86=2e271f
x50y86=2e2a21
x51y86=302923
x52y86=2d2822
x53y86=2d2822
x54y86=2f2a24
x55y86=2f2a24
x56y86=342f29
x57y86=312c26
x58y86=2e2923
x59y86=302921
x60y86=332c24
x61y86=332c22
x62y86=373125
x63y86=3d372b
x64y86=352f23
x65y86=393126
x66y86=3f372c
x67y86=3b3229
x68y86=373028
x69y86=26231e
x70y86=221f1a
x71y86=231e18
x72y86=2a261d
x73y86=7c756d
x74y86=cecac1
x75y86=f6f6ee
x76y86=fefffa
x77y86=fffffd
x78y86=ffffff
x79y86=fefefe
x80y86=ffffff
x81y86=ffffff
x82y86=ffffff
x83y86=fffefc
x84y86=fffffa
x85y86=fffff3
x86y86=fffceb
x87y86=fcf4e1
x88y86=f6e5d1
x89y86=ecd7bc
x90y86=e4cbad
x91y86=cfb698
x92y86=a1896d
x93y86=77654f
x94y86=766754
x95y86=695949
x96y86=746455
x97y86=635548
x98y86=635749
x99y86=483c30
x100y86=463a2e
x101y86=3f352b
x102y86=3a3227
x103y86=41392e
x104y86=332b20
x105y86=2e281c
x106y86=2d271b
x107y86=272318
x108y86=231f14
x109y86=1e1a11
x110y86=1d1a11
x111y86=1d1a13
x112y86=191611
x113y86=181713
x114y86=181713
x115y86=181712
x116y86=171611
x117y86=181712
x118y86=1b1a15
x119y86=1c1b16
x120y86=181712
x121y86=161511
x122y86=171612
x123y86=181914
x124y86=1f1e19
x125y86=342d23
x126y86=413424
x127y86=5b4530
x128y86=9c7e66
x129y86=a8896c
x130y86=a68566
x131y86=9d7e61
x132y86=8a6f54
x133y86=77614c
x134y86=4c3b2b
x135y86=4b3b2e
x136y86=776b5d
x137y86=64564b
x138y86=54473e
x139y86=52453c
x140y86=433930
x141y86=443a30
x142y86=393027
x143y86=372e27
x144y86=342b26
x145y86=2f2724
x146y86=433e3b
x147y86=5b5754
x148y86=393631
x149y86=2b2821
x150y86=24211a
x151y86=1f1c17
x152y86=1b1a15
x153y86=1e1d19
x154y86=1c1b17
x155y86=221f1a
x156y86=221d17
x157y86=261f17
x158y86=251e16
x159y86=26211b
x160y86=27241d
x161y86=23201b
x162y86=24211c
x163y86=25221b
x164y86=2b2620
x165y86=2d241f
x166y86=352822
x167y86=4a3c31
x168y86=8a7d6c
x169y86=dfd3bb
x170y86=fbefd5
x171y86=fff3dc
x172y86=fff4da
x173y86=fef3d7
x174y86=fcf1d3
x175y86=faefd3
x176y86=faefd3
x1y87=bbcde3
x2y87=bacce0
x3y87=bccee2
x4y87=bacbdd
x5y87=bbcce0
x6y87=bacbdd
x7y87=bbccde
x8y87=b8c9db
x9y87=b9cadc
x10y87=b5c8d9
x11y87=b1c2d6
x12y87=b3c6d7
x13y87=b5c6d8
x14y87=b5c6d8
x15y87=b4c5d7
x16y87=b5c6d8
x17y87=b8c9dd
x18y87=b8cade
x19y87=b7c8da
x20y87=b7c8da
x21y87=b7c8da
x22y87=b3c4d6
x23y87=b7c9dd
x24y87=b8cade
x25y87=bacbdf
x26y87=bdcee0
x27y87=bfcfdf
x28y87=c4d1e2
x29y87=c2cfdf
x30y87=c3d0e0
x31y87=c3d3e2
x32y87=c1cede
x33y87=bfcbd7
x34y87=9fa8af
x35y87=2a2b2d
x36y87=1d1c18
x37y87=201c19
x38y87=21201b
x39y87=24251f
x40y87=2e2f29
x41y87=42423a
x42y87=47443d
x43y87=4e4943
x44y87=514c46
x45y87=463f39
x46y87=4a433d
x47y87=494039
x48y87=3d342d
x49y87=372e27
x50y87=332c22
x51y87=3e352e
x52y87=2d261e
x53y87=403931
x54y87=37332a
x55y87=35302a
x56y87=2f2a24
x57y87=312c26
x58y87=322d27
x59y87=322b23
x60y87=302921
x61y87=2f281e
x62y87=2f291d
x63y87=383226
x64y87=383025
x65y87=342c21
x66y87=362d24
x67y87=3a312a
x68y87=2f2820
x69y87=24211c
x70y87=26231e
x71y87=211e17
x72y87=242017
x73y87=463f35
x74y87=b2aba1
x75y87=dbd7cc
x76y87=faf7ee
x77y87=fffef9
x78y87=fffffb
x79y87=ffffff
x80y87=fefefe
x81y87=ffffff
x82y87=fefefc
x83y87=fdfdfb
x84y87=fffffa
x85y87=fffff6
x86y87=fffdee
x87y87=fffcea
x88y87=fff3e0
x89y87=f9e7cf
x90y87=ecd7bc
x91y87=e3caac
x92y87=c8b192
x93y87=8f7961
x94y87=6d5b47
x95y87=625141
x96y87=605041
x97y87=584b3b
x98y87=463929
x99y87=423628
x100y87=3f3327
x101y87=3a3026
x102y87=40382d
x103y87=372f24
x104y87=352f23
x105y87=302a1e
x106y87=2d271b
x107y87=2a2418
x108y87=252116
x109y87=242017
x110y87=201c13
x111y87=1b1811
x112y87=1c1914
x113y87=181411
x114y87=191512
x115y87=1c1914
x116y87=1a1710
x117y87=191911
x118y87=1d1d15
x119y87=1d1e16
x120y87=1a1914
x121y87=181713
x122y87=171612
x123y87=161712
x124y87=1f1e19
x125y87=232017
x126y87=362e21
x127y87=5c4b3b
x128y87=a58f77
x129y87=b99f7c
x130y87=bda078
x131y87=b89871
x132y87=ad8d67
x133y87=a08361
x134y87=917a5b
x135y87=8e7c66
x136y87=756857
x137y87=766a5e
x138y87=7c7064
x139y87=584c40
x140y87=3f3327
x141y87=443a30
x142y87=3f352c
x143y87=3f322c
x144y87=372c26
x145y87=322924
x146y87=2d2822
x147y87=95908c
x148y87=87827e
x149y87=49443e
x150y87=302d26
x151y87=2a2720
x152y87=21201b
x153y87=1d1c18
x154y87=26231e
x155y87=271e19
x156y87=372a22
x157y87=3c2e25
x158y87=392b22
x159y87=281f18
x160y87=25201a
x161y87=221d17
x162y87=26231e
x163y87=1f1e19
x164y87=27241f
x165y87=463f37
x166y87=574e47
x167y87=41382f
x168y87=3f352b
x169y87=5c4c3f
x170y87=b5a291
x171y87=fde7d0
x172y87=ffeed3
x173y87=fff0d3
x174y87=fff0d3
x175y87=fdedd3
x176y87=fcebd1
x1y88=bccee2
x2y88=bbcedf
x3y88=bccddf
x4y88=b9cadc
x5y88=bacbdd
x6y88=bacbdd
x7y88=bbccde
x8y88=b5c6d8
x9y88=b4c5d7
x10y88=b5c6d8
x11y88=b3c4d6
x12y88=b4c5d7
x13y88=b0c1d3
x14y88=b4c5d7
x15y88=b1c2d4
x16y88=b3c4d6
x17y88=b7c8da
x18y88=b9cadc
x19y88=bbccdc
x20y88=b7c8d8
x21y88=b4c5d5
x22y88=bacbdb
x23y88=bbccde
x24y88=bbccde
x25y88=bfcfdf
x26y88=bcccdc
x27y88=c0cddd
x28y88=c4d1e1
x29y88=c4d0de
x30y88=c4d2df
x31y88=c6d3e3
x32y88=bdcada
x33y88=c1cede
x34y88=b7c4cd
x35y88=909599
x36y88=202221
x37y88=1b1c17
x38y88=1c1b16
x39y88=1e1f19
x40y88=23241e
x41y88=23241e
x42y88=2e2d28
x43y88=3b3833
x44y88=4c4743
x45y88=4b4340
x46y88=504943
x47y88=433a35
x48y88=463d36
x49y88=433a31
x50y88=3c332a
x51y88=494037
x52y88=322920
x53y88=3a312a
x54y88=3f3830
x55y88=3b342c
x56y88=302921
x57y88=312a24
x58y88=312a22
x59y88=2f2820
x60y88=312a20
x61y88=30291f
x62y88=322c20
x63y88=2f271c
x64y88=342c21
x65y88=3a3128
x66y88=30271e
x67y88=302720
x68y88=312a24
x69y88=25221b
x70y88=1c1b16
x71y88=1f1c15
x72y88=211c16
x73y88=30291f
x74y88=868074
x75y88=cbc5b9
x76y88=e4ded2
x77y88=f6efe7
x78y88=fffbf5
x79y88=fffefa
x80y88=fffffd
x81y88=fffffd
x82y88=fffffb
x83y88=fffffb
x84y88=fefff9
x85y88=fffff6
x86y88=fffff2
x87y88=fffded
x88y88=fffae7
x89y88=fff3df
x90y88=f7e3cb
x91y88=e1ccb1
x92y88=b9a489
x93y88=a59179
x94y88=6d5b47
x95y88=604f3f
x96y88=665646
x97y88=4f3f30
x98y88=4b3e2e
x99y88=433626
x100y88=423628
x101y88=3b3326
x102y88=363024
x103y88=302a1e
x104y88=302a1e
x105y88=2d271b
x106y88=2d271b
x107y88=2f291d
x108y88=2e271d
x109y88=231f16
x110y88=242017
x111y88=1f1c15
x112y88=1a1710
x113y88=1a1712
x114y88=191611
x115y88=201d16
x116y88=232017
x117y88=221f16
x118y88=1e1e14
x119y88=1d1d15
x120y88=1d1d15
x121y88=211e19
x122y88=191813
x123y88=171612
x124y88=1f1e19
x125y88=24241c
x126y88=2a261d
x127y88=2e241a
x128y88=51422f
x129y88=ab987a
x130y88=d2ba96
x131y88=d6ba93
x132y88=d1b48c
x133y88=c9a982
x134y88=bca07b
x135y88=b49f80
x136y88=9c8a72
x137y88=7f705d
x138y88=6c5f4f
x139y88=685b4b
x140y88=44382a
x141y88=3f3229
x142y88=4b3e36
x143y88=554842
x144y88=3f322c
x145y88=3f362f
x146y88=28231d
x147y88=75706c
x148y88=908b87
x149y88=635c56
x150y88=3b3630
x151y88=38332d
x152y88=312e27
x153y88=2a2722
x154y88=403835
x155y88=6e615b
x156y88=85746c
x157y88=8b776c
x158y88=766257
x159y88=5e4d45
x160y88=3b3128
x161y88=29221a
x162y88=232019
x163y88=21201b
x164y88=262520
x165y88=2b2620
x166y88=534c44
x167y88=39342e
x168y88=4a413a
x169y88=504239
x170y88=584537
x171y88=c8b29d
x172y88=fee9ce
x173y88=fdecd0
x174y88=fcedd0
x175y88=fbead0
x176y88=f8e7cd
x1y89=b7c8da
x2y89=b7c8da
x3y89=b8c7da
x4y89=bacada
x5y89=b7c7d7
x6y89=bdcddd
x7y89=b6c6d6
x8y89=b7c7d7
x9y89=b6c6d6
x10y89=b4c4d4
x11y89=b3c3d3
x12y89=b2c2d2
x13y89=aebece
x14y89=b4c4d4
x15y89=b2c2d2
x16y89=b4c4d4
x17y89=b5c5d5
x18y89=bacada
x19y89=b9c9d9
x20y89=b8c8d8
x21y89=b6c6d5
x22y89=b7c4d4
x23y89=becbdb
x24y89=c0cddd
x25y89=c0cddd
x26y89=c2cfdf
x27y89=bdcbd8
x28y89=c2d0dd
x29y89=c3d1de
x30y89=c4d2df
x31y89=c6d2e0
x32y89=c4d0de
x33y89=c3d0e0
x34y89=bccad7
x35y89=b7c4cd
x36y89=747d82
x37y89=242827
x38y89=23241f
x39y89=1e1d18
x40y89=1c1b16
x41y89=1e1f1a
x42y89=22231e
x43y89=242520
x44y89=32312c
x45y89=433e3a
x46y89=433e3a
x47y89=4e4643
x48y89=47403a
x49y89=453c35
x50y89=483f36
x51y89=4e443b
x52y89=42382f
x53y89=382e25
x54y89=4f453c
x55y89=473d34
x56y89=372e25
x57y89=362d26
x58y89=383127
x59y89=342d23
x60y89=2a2319
x61y89=2e271d
x62y89=312a20
x63y89=3a3329
x64y89=332c22
x65y89=393027
x66y89=352c23
x67y89=302720
x68y89=28211b
x69y89=1f1c15
x70y89=1b1811
x71y89=1c1914
x72y89=1c1912
x73y89=231e18
x74y89=484137
x75y89=827a6f
x76y89=bab0a4
x77y89=dbd1c5
x78y89=f7efe4
x79y89=fefaf1
x80y89=fffffa
x81y89=fffffa
x82y89=fffffa
x83y89=fffffa
x84y89=fffffa
x85y89=fffef7
x86y89=fffff3
x87y89=fffded
x88y89=fffce9
x89y89=f9ecd9
x90y89=e0cfbd
x91y89=a3947f
x92y89=867762
x93y89=756857
x94y89=746756
x95y89=776757
x96y89=655643
x97y89=5b4a3a
x98y89=564535
x99y89=4c3f2f
x100y89=44382a
x101y89=383023
x102y89=352f23
x103y89=302a1e
x104y89=262217
x105y89=2c281d
x106y89=2d291e
x107y89=322b21
x108y89=30291f
x109y89=28241b
x110y89=2a261d
x111y89=201d14
x112y89=1e1b14
x113y89=1c1c14
x114y89=1c1912
x115y89=211f13
x116y89=272318
x117y89=262217
x118y89=242017
x119y89=2a251f
x120y89=2b2821
x121y89=1f1c15
x122y89=1a1a12
x123y89=1b1a15
x124y89=1c1b16
x125y89=262520
x126y89=221f1a
x127y89=241f1b
x128y89=282119
x129y89=32291a
x130y89=736751
x131y89=baa68b
x132y89=d6bf9d
x133y89=d9bd98
x134y89=d3b790
x135y89=cfb38c
x136y89=c4ac88
x137y89=b5a083
x138y89=908069
x139y89=7a6d5d
x140y89=5b4f43
x141y89=605448
x142y89=5e5148
x143y89=6c5f57
x144y89=4a3f39
x145y89=47403a
x146y89=37322c
x147y89=302b27
x148y89=4f4a46
x149y89=473e39
x150y89=393029
x151y89=453c35
x152y89=4b423d
x153y89=564e4b
x154y89=807674
x155y89=a99a93
x156y89=a29086
x157y89=998274
x158y89=987e71
x159y89=8a7266
x160y89=6a584c
x161y89=3c3229
x162y89=262219
x163y89=262520
x164y89=2e2d28
x165y89=302d28
x166y89=2c2721
x167y89=37302a
x168y89=49423a
x169y89=433a31
x170y89=403227
x171y89=695443
x172y89=e2ccb7
x173y89=f8e7cd
x174y89=f8e9cc
x175y89=f8e8ce
x176y89=f6e6cd
x1y90=b5c6d8
x2y90=b7c8d8
x3y90=b8c8d8
x4y90=b7c7d7
x5y90=b9c9d9
x6y90=b8c8d8
x7y90=b6c6d6
x8y90=b7c7d7
x9y90=b7c7d7
x10y90=b1c1d1
x11y90=b3c3d3
x12y90=afbfcf
x13y90=b5c5d5
x14y90=b1c1d1
x15y90=b5c5d5
x16y90=b3c3d3
x17y90=b5c5d5
x18y90=b4c4d4
x19y90=b7c7d7
x20y90=b3c3d3
x21y90=b9c6d6
x22y90=b6c3d3
x23y90=bbc7d5
x24y90=c2cedc
x25y90=bdc9d7
x26y90=c3cfdd
x27y90=c1cddb
x28y90=c2d0dd
x29y90=c5d3e0
x30y90=c1cfdc
x31y90=c2ceda
x32y90=c5d1df
x33y90=c1cfdc
x34y90=bdcddc
x35y90=bacad7
x36y90=b5c2cb
x37y90=626a6d
x38y90=191d1c
x39y90=191a15
x40y90=1c1b16
x41y90=1c1d18
x42y90=1d1f1a
x43y90=1a1c17
x44y90=1d1e19
x45y90=201f1b
x46y90=2c2924
x47y90=37342f
x48y90=423d39
x49y90=474038
x50y90=4b4239
x51y90=534a41
x52y90=4e443b
x53y90=4b3e36
x54y90=4c3f37
x55y90=52453d
x56y90=3c3228
x57y90=40362d
x58y90=332a21
x59y90=393228
x60y90=322b21
x61y90=2c251b
x62y90=2a2319
x63y90=2e271d
x64y90=332c22
x65y90=342d23
x66y90=332c22
x67y90=332c24
x68y90=2c2721
x69y90=211e17
x70y90=211e17
x71y90=201d18
x72y90=1e1b16
x73y90=26211d
x74y90=221d17
x75y90=292017
x76y90=594f43
x77y90=aea296
x78y90=d7cbbf
x79y90=f4ece1
x80y90=faf6eb
x81y90=fffff5
x82y90=fffff6
x83y90=fffff7
x84y90=fffff6
x85y90=fffff3
x86y90=fffff0
x87y90=fffbe8
x88y90=e1dac8
x89y90=b8afa0
x90y90=928678
x91y90=908778
x92y90=8b8273
x93y90=837a6b
x94y90=95897b
x95y90=827564
x96y90=675644
x97y90=6a5746
x98y90=5c4b39
x99y90=514131
x100y90=423626
x101y90=3b3424
x102y90=332d1f
x103y90=2d291d
x104y90=2e2a1f
x105y90=2d291e
x106y90=322e23
x107y90=2d261c
x108y90=282117
x109y90=2b271e
x110y90=28241b
x111y90=211e15
x112y90=221f16
x113y90=1e1b14
x114y90=221f16
x115y90=262217
x116y90=242014
x117y90=312a20
x118y90=322b23
x119y90=2a251f
x120y90=3b3630
x121y90=24211a
x122y90=1e1e16
x123y90=1f1f17
x124y90=1e1d18
x125y90=21201b
x126y90=252420
x127y90=282723
x128y90=292522
x129y90=27241d
x130y90=383226
x131y90=433b28
x132y90=807258
x133y90=b09f83
x134y90=ccb595
x135y90=d4ba95
x136y90=cfb590
x137y90=cab28e
x138y90=c3ae91
x139y90=bead99
x140y90=a99d8f
x141y90=8a8076
x142y90=6f655c
x143y90=595049
x144y90=69605b
x145y90=4f4842
x146y90=3b3630
x147y90=35302a
x148y90=716a64
x149y90=423934
x150y90=3d322c
x151y90=3e332d
x152y90=615652
x153y90=655b59
x154y90=675e59
x155y90=796a63
x156y90=6a584e
x157y90=695345
x158y90=6e5749
x159y90=755e50
x160y90=6f5d51
x161y90=3f352c
x162y90=252118
x163y90=27271f
x164y90=2b2a25
x165y90=37342f
x166y90=36312b
x167y90=403c33
x168y90=37332a
x169y90=312a22
x170y90=33291f
x171y90=3e2c20
x172y90=968170
x173y90=f0dec6
x174y90=f4e4ca
x175y90=f5e5cb
x176y90=efdfc6
x1y91=b4c4d4
x2y91=b4c4d4
x3y91=b6c3d4
x4y91=b6c3d3
x5y91=b8c5d5
x6y91=b7c4d4
x7y91=bcc9d9
x8y91=bac7d7
x9y91=b3c0d1
x10y91=b2bfd0
x11y91=acbccc
x12y91=b5c5d5
x13y91=b1c1d1
x14y91=b3c3d3
x15y91=b3c0d0
x16y91=b5c2d2
x17y91=b0c0cf
x18y91=b4c4d3
x19y91=b4c4d3
x20y91=b0c0cf
x21y91=b8c5d5
x22y91=b6c3d3
x23y91=b8c4d2
x24y91=b9c5d1
x25y91=c2ccd8
x26y91=c1cdd9
x27y91=c3cfdd
x28y91=c1cfdc
x29y91=c1cfdc
x30y91=bdcdda
x31y91=c3d1de
x32y91=bccad7
x33y91=bcccd9
x34y91=becedd
x35y91=becbdc
x36y91=bdc9d7
x37y91=b4bdc6
x38y91=505559
x39y91=20221f
x40y91=191a14
x41y91=1c1d18
x42y91=1b1c17
x43y91=1d1e19
x44y91=1e1e1c
x45y91=1b1b19
x46y91=1c1d18
x47y91=23241f
x48y91=292823
x49y91=3e3b34
x50y91=4d4940
x51y91=524942
x52y91=574d44
x53y91=574a42
x54y91=55473e
x55y91=53453c
x56y91=473b2f
x57y91=41342b
x58y91=3a3026
x59y91=3a3128
x60y91=383127
x61y91=312d24
x62y91=242017
x63y91=252118
x64y91=2d2920
x65y91=2e2a1f
x66y91=2c281d
x67y91=2d2920
x68y91=2f2b22
x69y91=29261f
x70y91=1d1d15
x71y91=1d1c17
x72y91=1e1d19
x73y91=1c1815
x74y91=1f1a16
x75y91=241d17
x76y91=322920
x77y91=706458
x78y91=c8baad
x79y91=ddd1c3
x80y91=fdf4e5
x81y91=fffdee
x82y91=fffeef
x83y91=fffdf0
x84y91=ffffed
x85y91=ffffe9
x86y91=fffbe5
x87y91=dad1c0
x88y91=90887b
x89y91=8b847a
x90y91=918d84
x91y91=949085
x92y91=9a9389
x93y91=928a7f
x94y91=9d9185
x95y91=8d7d6e
x96y91=786755
x97y91=675443
x98y91=5a4736
x99y91=544333
x100y91=483b2b
x101y91=413829
x102y91=383224
x103y91=363226
x104y91=2f2b1f
x105y91=2e2a1f
x106y91=231f14
x107y91=211d14
x108y91=28241b
x109y91=2b271e
x110y91=29251c
x111y91=28261a
x112y91=242216
x113y91=201d14
x114y91=231f16
x115y91=29251a
x116y91=2c281d
x117y91=2f2b22
x118y91=28241b
x119y91=2b2620
x120y91=211c16
x121y91=2b2620
x122y91=1e1b14
x123y91=1d1c17
x124y91=1e1d18
x125y91=262721
x126y91=22211c
x127y91=23231b
x128y91=3d3a33
x129y91=2d2a23
x130y91=2b281f
x131y91=25251b
x132y91=2d2d21
x133y91=383429
x134y91=59503f
x135y91=95856c
x136y91=cbb494
x137y91=d0b78f
x138y91=d1b792
x139y91=cab69b
x140y91=cdc0af
x141y91=cfcbc0
x142y91=b7b4af
x143y91=8b8682
x144y91=6d6864
x145y91=58514b
x146y91=49423a
x147y91=39322a
x148y91=554c47
x149y91=524743
x150y91=423733
x151y91=453a36
x152y91=645b56
x153y91=605953
x154y91=4f4840
x155y91=54473f
x156y91=57493e
x157y91=5c4a3e
x158y91=5f4d41
x159y91=55473a
x160y91=4f453b
x161y91=332c26
x162y91=211e19
x163y91=23231b
x164y91=25251d
x165y91=2d2a23
x166y91=312e25
x167y91=2a2a20
x168y91=2c2920
x169y91=302923
x170y91=322721
x171y91=47362e
x172y91=6b594b
x173y91=e1cfb9
x174y91=f3e2c8
x175y91=efdfc5
x176y91=ddcdb3
x1y92=aebece
x2y92=b2c2d2
x3y92=b2bfcf
x4y92=bbc8d8
x5y92=b4c1d1
x6y92=b8c5d5
x7y92=b8c5d5
x8y92=b3c0d0
x9y92=b0bdce
x10y92=b1becf
x11y92=b0c0d0
x12y92=b5c5d5
x13y92=b2c2d2
x14y92=b0c0d0
x15y92=b2bfcf
x16y92=b6c3d3
x17y92=b5c5d2
x18y92=b7c7d4
x19y92=b8c8d7
x20y92=b5c2d2
x21y92=b8c5d5
x22y92=b5c3d0
x23y92=b7c5d2
x24y92=bbc7d3
x25y92=b8c4d0
x26y92=bcc8d6
x27y92=bfcbd9
x28y92=c0cedb
x29y92=bdcbd8
x30y92=bcccd9
x31y92=bcccd9
x32y92=b9c9d6
x33y92=beccd9
x34y92=c0cedb
x35y92=c0cdde
x36y92=bbc8d8
x37y92=bac4d0
x38y92=b0b9c0
x39y92=494d4e
x40y92=1b1d1a
x41y92=1d1e19
x42y92=1f201b
x43y92=1f1f1d
x44y92=1f1f1d
x45y92=1d1f1c
x46y92=1d1f1c
x47y92=1a1c17
x48y92=1f201b
x49y92=24231e
x50y92=2d2a23
x51y92=47403a
x52y92=595049
x53y92=534940
x54y92=55483f
x55y92=51443b
x56y92=4e4236
x57y92=4a3e32
x58y92=3f352b
x59y92=322920
x60y92=373026
x61y92=332c24
x62y92=29251c
x63y92=25201a
x64y92=252118
x65y92=2b271c
x66y92=2d291e
x67y92=2c281f
x68y92=2a271e
x69y92=28251e
x70y92=262520
x71y92=1c1b17
x72y92=1b1a16
x73y92=1f1b1a
x74y92=201c19
x75y92=211c18
x76y92=261f17
x77y92=3a3026
x78y92=635749
x79y92=a59586
x80y92=dccfbf
x81y92=faf3e1
x82y92=fffbe8
x83y92=fffdea
x84y92=fffde5
x85y92=fef7da
x86y92=f6edd0
x87y92=9e9381
x88y92=6e645a
x89y92=8f8b82
x90y92=96968e
x91y92=939089
x92y92=9e9a91
x93y92=9d948b
x94y92=95897d
x95y92=8e8171
x96y92=776654
x97y92=675443
x98y92=6a5746
x99y92=5a4937
x100y92=554837
x101y92=483c2c
x102y92=403929
x103y92=373123
x104y92=342e22
x105y92=2e2a1e
x106y92=221e13
x107y92=211d14
x108y92=1e1a11
x109y92=242017
x110y92=221e15
x111y92=2a281c
x112y92=28261a
x113y92=262219
x114y92=252116
x115y92=2c251b
x116y92=312a20
x117y92=312a20
x118y92=2e2a21
x119y92=262219
x120y92=211c16
x121y92=231e18
x122y92=231e18
x123y92=25221b
x124y92=21201b
x125y92=1d1c17
x126y92=25251d
x127y92=201d14
x128y92=201d14
x129y92=1e1b14
x130y92=1d1c17
x131y92=272a23
x132y92=282d27
x133y92=2b2d28
x134y92=27271f
x135y92=2e2516
x136y92=74644b
x137y92=c2ad8e
x138y92=cdb696
x139y92=cbb79c
x140y92=ccbdaa
x141y92=d2ccc0
x142y92=e3e0d9
x143y92=ebeae6
x144y92=cfceca
x145y92=a8a5a0
x146y92=838079
x147y92=837e7a
x148y92=6c655f
x149y92=736c66
x150y92=534c46
x151y92=413833
x152y92=403931
x153y92=564f49
x154y92=4e473f
x155y92=4f463d
x156y92=50463d
x157y92=3c2f26
x158y92=40332a
x159y92=372f24
x160y92=2c251b
x161y92=26211b
x162y92=2b2620
x163y92=342d25
x164y92=362f25
x165y92=332c22
x166y92=312d22
x167y92=2d2d23
x168y92=2e2e24
x169y92=332c26
x170y92=342923
x171y92=382a21
x172y92=705e50
x173y92=dfcfb8
x174y92=e9d9bf
x175y92=ddcdb3
x176y92=d9c9af
x1y93=b0bdcd
x2y93=b5c2d2
x3y93=b7c4d4
x4y93=b7c4d4
x5y93=bac6d4
x6y93=b7c3d1
x7y93=b5c3d0
x8y93=b0becb
x9y93=b4c1d1
x10y93=b4c1d1
x11y93=b3c0d0
x12y93=b5c2d2
x13y93=b3c0d0
x14y93=b3c0d0
x15y93=b1bece
x16y93=b2bfcf
x17y93=b1bece
x18y93=b7c4d4
x19y93=b7c5d2
x20y93=bac6d4
x21y93=bbc7d5
x22y93=b7c5d2
x23y93=b8c6d3
x24y93=b2c2cf
x25y93=b9c9d6
x26y93=bacad9
x27y93=c2cfdf
x28y93=bac7d7
x29y93=b9c7d4
x30y93=bccad7
x31y93=beccd9
x32y93=bdcbd8
x33y93=bdc9d5
x34y93=c1cddb
x35y93=c2d0dd
x36y93=bbc8d8
x37y93=bbc8d8
x38y93=bdc7d3
x39y93=acb1b7
x40y93=363739
x41y93=1c1e1b
x42y93=1c1e19
x43y93=1d1f1c
x44y93=1d1f1c
x45y93=1f1f1d
x46y93=1e1e1c
x47y93=1b1d18
x48y93=1e201b
x49y93=1e1f1a
x50y93=24231e
x51y93=2e2b26
x52y93=423d37
x53y93=4b443c
x54y93=4a4138
x55y93=4c4238
x56y93=483e34
x57y93=4e443a
x58y93=423a2f
x59y93=3e352c
x60y93=2f281e
x61y93=312a22
x62y93=342d25
x63y93=28241b
x64y93=27231a
x65y93=282419
x66y93=2a261b
x67y93=2b271c
x68y93=26231a
x69y93=26231c
x70y93=1b1a15
x71y93=171813
x72y93=181713
x73y93=1a1613
x74y93=1c1815
x75y93=1f1c17
x76y93=201b15
x77y93=251e16
x78y93=31271d
x79y93=716356
x80y93=cabaab
x81y93=e0d3c2
x82y93=f6ead4
x83y93=fcecd2
x84y93=fff1d0
x85y93=ffedcc
x86y93=eeddbf
x87y93=6e6150
x88y93=73695f
x89y93=8a867d
x90y93=97948d
x91y93=97978d
x92y93=9c9a8e
x93y93=9e968b
x94y93=90867a
x95y93=8b806e
x96y93=786956
x97y93=72614f
x98y93=73604f
x99y93=645341
x100y93=5e4f3c
x101y93=524532
x102y93=4a3f2d
x103y93=3d3423
x104y93=342d1d
x105y93=2e281c
x106y93=1f1b10
x107y93=1f1b12
x108y93=1f1c13
x109y93=1d1a11
x110y93=1e1b12
x111y93=26231a
x112y93=242118
x113y93=2c2a1e
x114y93=302c21
x115y93=342c21
x116y93=372d23
x117y93=3c3429
x118y93=332c22
x119y93=2b271e
x120y93=27241b
x121y93=221e15
x122y93=231f16
x123y93=211e15
x124y93=1d1d15
x125y93=22221a
x126y93=1e1e16
x127y93=201d16
x128y93=1e1913
x129y93=211c16
x130y93=211e19
x131y93=1f1e19
x132y93=1b1c16
x133y93=1c1d17
x134y93=1d1c17
x135y93=1c1910
x136y93=211b0f
x137y93=382c1e
x138y93=665646
x139y93=82715f
x140y93=8f7e6c
x141y93=bfaf9f
x142y93=e0d6ca
x143y93=eeede8
x144y93=f1f3f0
x145y93=fbfdfa
x146y93=f9fbf8
x147y93=ebebeb
x148y93=c4c4c2
x149y93=a2a19c
x150y93=a09d96
x151y93=89857c
x152y93=6d665e
x153y93=3f3832
x154y93=4b443e
x155y93=403933
x156y93=49423c
x157y93=453e36
x158y93=393228
x159y93=3c352b
x160y93=3d362c
x161y93=3d342d
x162y93=4a4037
x163y93=57493e
x164y93=604f45
x165y93=524439
x166y93=443a30
x167y93=302c21
x168y93=2d2a21
x169y93=302c23
x170y93=31281f
x171y93=3a2a1d
x172y93=a39280
x173y93=e5d6bf
x174y93=d7c9ae
x175y93=dbcaae
x176y93=decdb1
x1y94=b0bdcd
x2y94=b4c1d1
x3y94=b4c1d1
x4y94=b4c1d1
x5y94=b4c0ce
x6y94=b8c4d2
x7y94=b8c6d3
x8y94=b5c3d0
x9y94=b4c1d1
x10y94=b5c2d2
x11y94=b7c4d4
x12y94=b3c0d0
x13y94=b2bfcf
x14y94=b0bdcd
x15y94=b1bece
x16y94=b3c0d0
x17y94=b7c4d4
x18y94=b5c2d2
x19y94=bbc9d6
x20y94=b2c0cd
x21y94=b4c0cc
x22y94=b6c4cf
x23y94=b8c6d3
x24y94=b4c4d1
x25y94=b4c4d3
x26y94=bcccdb
x27y94=b9c6d6
x28y94=b9c6d6
x29y94=c0cedb
x30y94=bac8d5
x31y94=c0cedb
x32y94=b8c6d3
x33y94=b8c4d0
x34y94=bcc8d4
x35y94=b9c7d4
x36y94=beccd9
x37y94=bac7d7
x38y94=b7c3d1
x39y94=bbc4cd
x40y94=9ea5ab
x41y94=282e2e
x42y94=1b201c
x43y94=1e201d
x44y94=222421
x45y94=21211f
x46y94=1e1e1c
x47y94=1c1d18
x48y94=1c1d18
x49y94=20211c
x50y94=1f1e1a
x51y94=22211c
x52y94=2c2924
x53y94=2d2822
x54y94=38342b
x55y94=3e372d
x56y94=433a31
x57y94=483f36
x58y94=443b32
x59y94=453c33
x60y94=3a3128
x61y94=342d25
x62y94=2f2820
x63y94=322b23
x64y94=2c281d
x65y94=262217
x66y94=272318
x67y94=2e2a1f
x68y94=2a271e
x69y94=211e17
x70y94=1c1b16
x71y94=171611
x72y94=181712
x73y94=171612
x74y94=1a1712
x75y94=1d1a15
x76y94=1d1a13
x77y94=201b15
x78y94=251e16
x79y94=291f16
x80y94=3b2f23
x81y94=75695b
x82y94=beb19e
x83y94=e9d8be
x84y94=efdabb
x85y94=f6dfbf
x86y94=ead7b9
x87y94=6a5b48
x88y94=554b3f
x89y94=817a72
x90y94=8e8b82
x91y94=929084
x92y94=999589
x93y94=8f877a
x94y94=8e8274
x95y94=827765
x96y94=6c5f4c
x97y94=705f4d
x98y94=6b5847
x99y94=62513d
x100y94=63523e
x101y94=5e4d39
x102y94=534431
x103y94=3e3120
x104y94=39301f
x105y94=453d30
x106y94=302a1e
x107y94=252116
x108y94=1b180f
x109y94=1f1c13
x110y94=201d14
x111y94=19160d
x112y94=252219
x113y94=2e2c20
x114y94=3d372b
x115y94=42382c
x116y94=403428
x117y94=3c3024
x118y94=342c21
x119y94=282419
x120y94=322f26
x121y94=252219
x122y94=211e15
x123y94=201d14
x124y94=1e1b12
x125y94=201d16
x126y94=1f1c15
x127y94=1f1c15
x128y94=221f1a
x129y94=25201c
x130y94=1f1c17
x131y94=1a1914
x132y94=181712
x133y94=171812
x134y94=191a14
x135y94=191813
x136y94=1a1914
x137y94=1f1a16
x138y94=2a231b
x139y94=35291d
x140y94=433324
x141y94=7a6a5a
x142y94=b7ab9d
x143y94=e3dfd6
x144y94=f6f7f1
x145y94=fcfdf8
x146y94=fefffd
x147y94=fdfffc
x148y94=f5f7f4
x149y94=d9dad5
x150y94=c7c6c1
x151y94=bab7b0
x152y94=98948b
x153y94=504943
x154y94=3b342e
x155y94=372f2c
x156y94=4a433d
x157y94=4a433d
x158y94=3e372f
x159y94=352e26
x160y94=2d261e
x161y94=362d24
x162y94=44372e
x163y94=564438
x164y94=5b473c
x165y94=5b493f
x166y94=5a4d44
x167y94=443d35
x168y94=28241b
x169y94=2e261b
x170y94=362a1c
x171y94=766555
x172y94=d1bfab
x173y94=dbcdb3
x174y94=dbcdb0
x175y94=e1cdb2
x176y94=e8d5b7
x1y95=acbac7
x2y95=adbbc8
x3y95=afbdca
x4y95=afbdca
x5y95=b0bcca
x6y95=b5c1cf
x7y95=b9c5d3
x8y95=b5c1cf
x9y95=b5c3d0
x10y95=b5c3d0
x11y95=b2bfcf
x12y95=b3c0d0
x13y95=b4c1d1
x14y95=b4c1d1
x15y95=b3c1ce
x16y95=b2c0cd
x17y95=b7c3d3
x18y95=b1bece
x19y95=acbac7
x20y95=b1c1ce
x21y95=b3c1ce
x22y95=beccd9
x23y95=bccad7
x24y95=bdcbd8
x25y95=bcc9d9
x26y95=b8c5d5
x27y95=b9c5d5
x28y95=bcc8d8
x29y95=bbc9d6
x30y95=bbc9d6
x31y95=b9c7d2
x32y95=bac8d3
x33y95=bccad5
x34y95=beccd7
x35y95=bccad7
x36y95=bdcbd8
x37y95=c1cfdc
x38y95=becedb
x39y95=b8c9d3
x40y95=b6c5cc
x41y95=9aa5a7
x42y95=2e3736
x43y95=1b201c
x44y95=1f211c
x45y95=21221d
x46y95=201f1b
x47y95=1f1e1a
x48y95=1c1b17
x49y95=1c1b17
x50y95=1f1e1a
x51y95=201f1b
x52y95=21201b
x53y95=25241f
x54y95=282820
x55y95=28251e
x56y95=37332a
x57y95=423e35
x58y95=474038
x59y95=49423a
x60y95=433c34
x61y95=3a3128
x62y95=3b3229
x63y95=332a21
x64y95=30291f
x65y95=2c251b
x66y95=262217
x67y95=28241b
x68y95=27241d
x69y95=24211c
x70y95=201d18
x71y95=1e1b16
x72y95=191911
x73y95=181712
x74y95=15150d
x75y95=1a1710
x76y95=1c1912
x77y95=1d1a13
x78y95=1c1914
x79y95=1b1612
x80y95=1c1711
x81y95=272016
x82y95=463e31
x83y95=968978
x84y95=cdbba7
x85y95=d7c3aa
x86y95=cfbda5
x87y95=877865
x88y95=2a2112
x89y95=4c453b
x90y95=7e7a6f
x91y95=908a7c
x92y95=898272
x93y95=8e8274
x94y95=857868
x95y95=746754
x96y95=665a44
x97y95=695846
x98y95=62513f
x99y95=614f3b
x100y95=594733
x101y95=54422e
x102y95=51402c
x103y95=50412e
x104y95=5a4f3d
x105y95=7d7465
x106y95=7e786c
x107y95=706c61
x108y95=2d2a21
x109y95=201d14
x110y95=1c1910
x111y95=1b170e
x112y95=242017
x113y95=252116
x114y95=463e33
x115y95=574b3d
x116y95=46382b
x117y95=403225
x118y95=3c3324
x119y95=332d21
x120y95=343226
x121y95=302e22
x122y95=232115
x123y95=232017
x124y95=221e15
x125y95=221d17
x126y95=221f1a
x127y95=211e19
x128y95=21201b
x129y95=221f1a
x130y95=1e1e16
x131y95=24231e
x132y95=1a1b15
x133y95=1b1a16
x134y95=181713
x135y95=1a1914
x136y95=14130e
x137y95=1c1b16
x138y95=1f1c17
x139y95=201b15
x140y95=2e271d
x141y95=493f33
x142y95=655b4f
x143y95=c0b6aa
x144y95=eae2d7
x145y95=f5efe3
x146y95=fbf7ec
x147y95=fffcf5
x148y95=fffef9
x149y95=fefdf9
x150y95=f5f4f0
x151y95=efeee9
x152y95=d4d1cc
x153y95=bab5af
x154y95=a9a29a
x155y95=8b807c
x156y95=6e635f
x157y95=554a46
x158y95=473c38
x159y95=3e332d
x160y95=322721
x161y95=2e251c
x162y95=392f25
x163y95=504033
x164y95=5c4a3e
x165y95=54463b
x166y95=4d4339
x167y95=2e251e
x168y95=2a2017
x169y95=34261b
x170y95=5b4a3a
x171y95=bdab95
x172y95=d7c6ac
x173y95=d9c9af
x174y95=ddceb1
x175y95=e7d2b5
x176y95=edd8b9
x1y96=acbac7
x2y96=aebcc9
x3y96=acbac7
x4y96=acbac7
x5y96=b1bdcb
x6y96=b2becc
x7y96=b4c0ce
x8y96=b1bdcb
x9y96=b0becb
x10y96=b3c1ce
x11y96=b2bfcf
x12y96=b5c2d2
x13y96=b3c0d0
x14y96=afbccc
x15y96=b1bfcc
x16y96=b3c1ce
x17y96=b4c0d0
x18y96=b3c0d0
x19y96=b9c7d4
x20y96=b6c6d3
x21y96=b8c8d5
x22y96=b5c5d2
x23y96=b9c7d4
x24y96=b7c5d2
x25y96=b6c2d2
x26y96=b8c4d4
x27y96=bac6d6
x28y96=b1bdcd
x29y96=bccad7
x30y96=b8c6d3
x31y96=b9c7d2
x32y96=bac8d3
x33y96=bacbd5
x34y96=b8c6d1
x35y96=beccd9
x36y96=c4d2df
x37y96=c4d2df
x38y96=bdcdda
x39y96=bdcfdb
x40y96=b7c9d3
x41y96=b7c4cc
x42y96=8c9698
x43y96=252b29
x44y96=1c1e19
x45y96=1c1d18
x46y96=201f1b
x47y96=1d1c18
x48y96=1f1e1a
x49y96=1f1e1a
x50y96=1b1c17
x51y96=1e1f1a
x52y96=1f201b
x53y96=1d1e19
x54y96=262721
x55y96=262520
x56y96=292921
x57y96=2a2720
x58y96=2b2620
x59y96=3b342e
x60y96=453e36
x61y96=423b33
x62y96=40392f
x63y96=474036
x64y96=393228
x65y96=30291f
x66y96=262219
x67y96=232019
x68y96=25221b
x69y96=221d19
x70y96=211c18
x71y96=1e1b14
x72y96=232019
x73y96=23231b
x74y96=1f1f17
x75y96=19160f
x76y96=191611
x77y96=161510
x78y96=191813
x79y96=1b1a16
x80y96=1a1914
x81y96=1c1912
x82y96=221e13
x83y96=2d2319
x84y96=3a2c1f
x85y96=504030
x86y96=60513e
x87y96=7a6d5d
x88y96=605748
x89y96=2a2217
x90y96=2f291d
x91y96=837c6c
x92y96=928676
x93y96=817464
x94y96=746454
x95y96=665744
x96y96=5e4f3a
x97y96=574634
x98y96=574634
x99y96=544130
x100y96=5b4935
x101y96=5c4a36
x102y96=54422e
x103y96=584735
x104y96=837665
x105y96=a19887
x106y96=aaa295
x107y96=9f978a
x108y96=696355
x109y96=4a4235
x110y96=2d2719
x111y96=241c11
x112y96=1f170a
x113y96=1e1609
x114y96=403728
x115y96=4a3e2e
x116y96=4b3e2d
x117y96=534636
x118y96=4b3f31
x119y96=3e3629
x120y96=3b372b
x121y96=2d2b1f
x122y96=2b291d
x123y96=252116
x124y96=2c281f
x125y96=27221c
x126y96=27221e
x127y96=23201b
x128y96=201d18
x129y96=1c1b16
x130y96=1f1f17
x131y96=201f1a
x132y96=1c1d17
x133y96=161511
x134y96=1b1a16
x135y96=1d1c18
x136y96=151410
x137y96=151611
x138y96=171813
x139y96=171612
x140y96=1f1c17
x141y96=2c281f
x142y96=383025
x143y96=645a4e
x144y96=bdb1a3
x145y96=d9ccbc
x146y96=e8dccc
x147y96=f9f0e1
x148y96=fffbef
x149y96=fffef8
x150y96=fffef9
x151y96=fdfcf7
x152y96=f2efe8
x153y96=eeeae1
x154y96=e9e0d7
x155y96=cac0b7
x156y96=b4a79f
x157y96=8c7f77
x158y96=51443c
x159y96=45382f
x160y96=473b2f
x161y96=41372b
x162y96=483c2e
x163y96=483829
x164y96=433324
x165y96=36281b
x166y96=33271b
x167y96=31271d
x168y96=35271c
x169y96=635242
x170y96=bba693
x171y96=d7c3aa
x172y96=d9c5aa
x173y96=dfceb2
x174y96=e5d2b4
x175y96=ebd6b7
x176y96=f0d9ba
x1y97=a7b3bf
x2y97=afbbc7
x3y97=a9b7c4
x4y97=a8b6c3
x5y97=acb8c6
x6y97=adb9c7
x7y97=acbac7
x8y97=abb9c6
x9y97=adbbc8
x10y97=b2c0cd
x11y97=b3c1ce
x12y97=b0becb
x13y97=adbbc8
x14y97=aebcc9
x15y97=b1bece
x16y97=b2bfcf
x17y97=b4c2cf
x18y97=b8c6d3
x19y97=b5c3d0
x20y97=b4c2cf
x21y97=b1bfcc
x22y97=b3c1ce
x23y97=b0becb
x24y97=b6c4d1
x25y97=b4c2cf
x26y97=b7c5d2
x27y97=b6c4d1
x28y97=b6c4d1
x29y97=bac8d5
x30y97=b7c5d2
x31y97=b8c6d3
x32y97=b7c5d2
x33y97=bac8d3
x34y97=c1cfda
x35y97=c4d2df
x36y97=bfcdda
x37y97=c1cfdc
x38y97=bfcdda
x39y97=bdcddc
x40y97=bbcbda
x41y97=bccad5
x42y97=bcc6cf
x43y97=7a8284
x44y97=1c211d
x45y97=1a1c17
x46y97=1f201b
x47y97=1e1f1a
x48y97=1c1d18
x49y97=1f201b
x50y97=1d1f1a
x51y97=191b16
x52y97=1e201d
x53y97=20201e
x54y97=22231e
x55y97=25241f
x56y97=282722
x57y97=2b2823
x58y97=2b2823
x59y97=26211b
x60y97=322e25
x61y97=38342b
x62y97=3b372e
x63y97=514c46
x64y97=625d57
x65y97=56514b
x66y97=3f3c35
x67y97=333029
x68y97=28251e
x69y97=26211b
x70y97=221d17
x71y97=231e1a
x72y97=221f1a
x73y97=201d18
x74y97=1d1a15
x75y97=1a1712
x76y97=1b1813
x77y97=1a1712
x78y97=181510
x79y97=1d1a15
x80y97=1f1c15
x81y97=1f1c15
x82y97=1f1b12
x83y97=282119
x84y97=2a2118
x85y97=2e241a
x86y97=362c22
x87y97=41392e
x88y97=4f473c
x89y97=595144
x90y97=756c5d
x91y97=817565
x92y97=756555
x93y97=6c5b4b
x94y97=5c4b39
x95y97=51402c
x96y97=52412d
x97y97=54422e
x98y97=574433
x99y97=574634
x100y97=5b4a38
x101y97=554432
x102y97=52412f
x103y97=62513f
x104y97=998a77
x105y97=a79c8a
x106y97=a79c8a
x107y97=aa9b88
x108y97=ac9d88
x109y97=a89783
x110y97=8f806b
x111y97=6c5f4c
x112y97=453a26
x113y97=2d2210
x114y97=342917
x115y97=443724
x116y97=483b28
x117y97=534737
x118y97=4c4032
x119y97=41372b
x120y97=443c31
x121y97=373026
x122y97=322e23
x123y97=2d291e
x124y97=302c21
x125y97=2b2620
x126y97=29241e
x127y97=26211b
x128y97=211c18
x129y97=201d18
x130y97=21201b
x131y97=1b1a15
x132y97=1c1b16
x133y97=191814
x134y97=171614
x135y97=191816
x136y97=171612
x137y97=141510
x138y97=161712
x139y97=141510
x140y97=181713
x141y97=1f1c17
x142y97=26211b
x143y97=2c261a
x144y97=564d3e
x145y97=9d8c7c
x146y97=cdbba7
x147y97=e5d5be
x148y97=f4e8d2
x149y97=fef6e9
x150y97=fffcf1
x151y97=fffef5
x152y97=fdfaf1
x153y97=eeeadf
x154y97=e5ddd0
x155y97=e6dace
x156y97=cbbdb0
x157y97=ccbeb1
x158y97=b6a999
x159y97=b4a794
x160y97=afa28f
x161y97=a79885
x162y97=a49582
x163y97=978674
x164y97=978674
x165y97=8f806d
x166y97=837461
x167y97=827360
x168y97=978875
x169y97=cbb9a3
x170y97=dac8b0
x171y97=d9c5ac
x172y97=e0ccb1
x173y97=e3ceb1
x174y97=e8d3b4
x175y97=ead3b4
x176y97=f4dbbc
x1y98=a7b3bf
x2y98=a5b1bd
x3y98=a3b1be
x4y98=a5b3c0
x5y98=acb8c6
x6y98=aab6c4
x7y98=a9b7c4
x8y98=abb9c6
x9y98=afbdca
x10y98=abb9c6
x11y98=adbbc8
x12y98=afbdca
x13y98=adbbc8
x14y98=adbbc8
x15y98=b2bfcf
x16y98=b2bfcf
x17y98=afbdca
x18y98=aebcc9
x19y98=afbdca
x20y98=b3c1ce
x21y98=b3c1ce
x22y98=b3c1ce
x23y98=b5c3d0
x24y98=b4c2cf
x25y98=b6c4d1
x26y98=b6c4d1
x27y98=b5c3d0
x28y98=b3c1ce
x29y98=b3c1ce
x30y98=b4c2cf
x31y98=b6c4d1
x32y98=bbc9d6
x33y98=c2d0db
x34y98=beccd7
x35y98=bccad7
x36y98=c2d0dd
x37y98=bdcbd8
x38y98=c4d2df
x39y98=c3d0e0
x40y98=bdcddc
x41y98=c2d0dd
x42y98=bdcad3
x43y98=b5bec3
x44y98=636969
x45y98=1b201c
x46y98=1b1d18
x47y98=1e1e1c
x48y98=20211c
x49y98=1f201b
x50y98=1f211c
x51y98=1e201d
x52y98=191b18
x53y98=1e1e1c
x54y98=262722
x55y98=292823
x56y98=2e2d28
x57y98=41403c
x58y98=433f3c
x59y98=44413c
x60y98=36332c
x61y98=38332d
x62y98=322f28
x63y98=312e29
x64y98=413e39
x65y98=4c4944
x66y98=4d4a43
x67y98=423f38
x68y98=2e2b24
x69y98=28231d
x70y98=231e18
x71y98=211c18
x72y98=211e19
x73y98=1f1c17
x74y98=1e1b16
x75y98=1b1714
x76y98=191814
x77y98=181510
x78y98=171611
x79y98=1b1a15
x80y98=1b1b13
x81y98=1f1c15
x82y98=1f1c15
x83y98=231e18
x84y98=2a251f
x85y98=302921
x86y98=312a22
x87y98=484137
x88y98=736b60
x89y98=8b8175
x90y98=817565
x91y98=6b5b4c
x92y98=6a5949
x93y98=544130
x94y98=564332
x95y98=574632
x96y98=564531
x97y98=5a4834
x98y98=5b4935
x99y98=564734
x100y98=514131
x101y98=4e3f2c
x102y98=51422f
x103y98=615141
x104y98=746756
x105y98=736b58
x106y98=8a7f6b
x107y98=998970
x108y98=c3af96
x109y98=cebaa1
x110y98=cab8a0
x111y98=c3b49d
x112y98=afa38d
x113y98=877865
x114y98=493c29
x115y98=3a2d1a
x116y98=403322
x117y98=423628
x118y98=44382c
x119y98=392f23
x120y98=372f24
x121y98=393228
x122y98=383127
x123y98=312d21
x124y98=2d291e
x125y98=2a261d
x126y98=2b2620
x127y98=29241e
x128y98=25201a
x129y98=211c18
x130y98=23201b
x131y98=201f1a
x132y98=1f1e19
x133y98=191a15
x134y98=161614
x135y98=151513
x136y98=181914
x137y98=141510
x138y98=161711
x139y98=141510
x140y98=171813
x141y98=1a1915
x142y98=1d1c17
x143y98=1f1c13
x144y98=2c261a
x145y98=3c2e21
x146y98=6b5a48
x147y98=b7a58f
x148y98=dcccb5
x149y98=ebdecd
x150y98=f4e8da
x151y98=fef6e9
x152y98=fff7ea
x153y98=f4ebdc
x154y98=f0e4d4
x155y98=e5d8c7
x156y98=d7c7b7
x157y98=d8c9b6
x158y98=ccbda8
x159y98=c6b69d
x160y98=cabaa1
x161y98=d3c3ac
x162y98=ddccb8
x163y98=dfceba
x164y98=e0d0b9
x165y98=e2d2bb
x166y98=dcccb5
x167y98=dcccb5
x168y98=dacab1
x169y98=d9c8ae
x170y98=d7c6aa
x171y98=decaaf
x172y98=e3ceb1
x173y98=e7d0b1
x174y98=e9d2b3
x175y98=eed5b6
x176y98=f0d7b8
x1y99=a6b2be
x2y99=a6b2be
x3y99=a6b2be
x4y99=a5b1bd
x5y99=a5b3c0
x6y99=adbbc8
x7y99=abb7c5
x8y99=a9b7c4
x9y99=acbac7
x10y99=abbbc8
x11y99=acbac7
x12y99=acbac7
x13y99=afbfce
x14y99=adbdcc
x15y99=adbaca
x16y99=a9b6c6
x17y99=aab7c7
x18y99=adbaca
x19y99=b2c0cd
x20y99=b1bfcc
x21y99=b3c1ce
x22y99=b1bfcc
x23y99=b0becb
x24y99=b4c2cf
x25y99=b3c1ce
x26y99=b6c4d1
x27y99=b2c0cd
x28y99=b3c1ce
x29y99=b4c2cf
x30y99=b9c7d4
x31y99=beccd9
x32y99=beccd9
x33y99=bbc9d4
x34y99=b7c5d0
x35y99=c2cedc
x36y99=c1cfdc
x37y99=c4d2df
x38y99=c5d3e0
x39y99=c0cedb
x40y99=bdcbd8
x41y99=b9c5d3
x42y99=b9c6cf
x43y99=bac5cb
x44y99=adb5b8
x45y99=3a3e3d
x46y99=181a17
x47y99=181a17
x48y99=1a1b16
x49y99=1d1e19
x50y99=1e1f1a
x51y99=1c1c1a
x52y99=1c1c1a
x53y99=1e1f1a
x54y99=1e1f19
x55y99=20211b
x56y99=23241e
x57y99=31322d
x58y99=494844
x59y99=41403c
x60y99=3c3b36
x61y99=403d38
x62y99=464540
x63y99=44433e
x64y99=4d4c47
x65y99=63625d
x66y99=6e6d68
x67y99=5f5e59
x68y99=484742
x69y99=322f28
x70y99=28251e
x71y99=1c1912
x72y99=201d16
x73y99=232019
x74y99=212119
x75y99=1a1914
x76y99=171812
x77y99=171612
x78y99=171813
x79y99=1a1b16
x80y99=191a14
x81y99=191813
x82y99=1c1914
x83y99=221d17
x84y99=27221c
x85y99=3f3830
x86y99=706961
x87y99=958c83
x88y99=857d72
x89y99=7b7165
x90y99=6b5f4f
x91y99=665647
x92y99=6a5949
x93y99=6e5b4a
x94y99=675443
x95y99=5a4937
x96y99=554432
x97y99=5a4935
x98y99=51402c
x99y99=4a3b28
x100y99=473a27
x101y99=443724
x102y99=4c3f2e
x103y99=4b3f2f
x104y99=4d4433
x105y99=514c38
x106y99=4f4931
x107y99=aea085
x108y99=d9c8ac
x109y99=ddccb2
x110y99=dbcbb2
x111y99=c6b9a6
x112y99=978a79
x113y99=91826f
x114y99=867764
x115y99=6d5d4e
x116y99=534538
x117y99=3a2e22
x118y99=35281f
x119y99=31271d
x120y99=2f261d
x121y99=322b21
x122y99=312d22
x123y99=302c20
x124y99=302c21
x125y99=2e2923
x126y99=2a2720
x127y99=27241b
x128y99=29261d
x129y99=28231d
x130y99=241f1b
x131y99=23231b
x132y99=1a1b13
x133y99=1f221b
x134y99=151712
x135y99=151714
x136y99=151611
x137y99=141510
x138y99=181712
x139y99=161510
x140y99=161510
x141y99=181913
x142y99=181913
x143y99=1c1b16
x144y99=1f1f17
x145y99=2a2720
x146y99=383127
x147y99=514535
x148y99=948371
x149y99=d6c4b0
x150y99=ead8c2
x151y99=f5e4d0
x152y99=fae9d5
x153y99=efdecc
x154y99=ecdac6
x155y99=e9d7c3
x156y99=dfcdb7
x157y99=d8c6b2
x158y99=d4c2ac
x159y99=d1c0a6
x160y99=d7c6ac
x161y99=dcccb5
x162y99=dfcfb8
x163y99=e1d1ba
x164y99=e3d3bc
x165y99=e1d1ba
x166y99=e2d2b9
x167y99=e1d1b8
x168y99=d7c7ae
x169y99=d5c4aa
x170y99=d7c6aa
x171y99=dcc8ad
x172y99=e2cdb0
x173y99=e8d1b2
x174y99=e9d2b2
x175y99=ead1b2
x176y99=eed5b6
x1y100=a8b4c0
x2y100=a5b1bd
x3y100=a7b3bf
x4y100=aab6c2
x5y100=a6b4c1
x6y100=aab8c5
x7y100=a7b5c2
x8y100=acbac7
x9y100=aab8c5
x10y100=a9b9c6
x11y100=acbac7
x12y100=aab8c5
x13y100=a5b5c4
x14y100=a2b2c1
x15y100=a8b5c5
x16y100=a7b4c4
x17y100=a9b6c6
x18y100=b2bfcf
x19y100=afbdca
x20y100=adbbc8
x21y100=b4c2cf
x22y100=b2c0cd
x23y100=b2c0cd
x24y100=b3c1ce
x25y100=afbdca
x26y100=afbdca
x27y100=b2c0cd
x28y100=b7c5d2
x29y100=b9c7d4
x30y100=bac8d5
x31y100=b7c5d2
x32y100=b9c7d4
x33y100=bbc9d4
x34y100=bfcdd8
x35y100=c6d2e0
x36y100=c2d0dd
x37y100=bfcdda
x38y100=b8c8d5
x39y100=bbc9d6
x40y100=bac8d3
x41y100=b7c3cf
x42y100=bfccd5
x43y100=c1cbd4
x44y100=b8c1c8
x45y100=969b9e
x46y100=212524
x47y100=161815
x48y100=1c1e19
x49y100=1b1c17
x50y100=1e1d19
x51y100=1d1d1b
x52y100=1d1e19
x53y100=1b1c17
x54y100=1a1b15
x55y100=1e1f19
x56y100=1d1e18
x57y100=1e1f19
x58y100=282924
x59y100=363531
x60y100=3e3d38
x61y100=32312c
x62y100=2e2d28
x63y100=373631
x64y100=3d3c37
x65y100=565550
x66y100=575651
x67y100=5a5954
x68y100=64635e
x69y100=6f6c65
x70y100=66635c
x71y100=514e47
x72y100=3c3c34
x73y100=2c2c24
x74y100=22231b
x75y100=1e1f19
x76y100=181913
x77y100=181914
x78y100=1b1c17
x79y100=1a1b16
x80y100=191a15
x81y100=1a1914
x82y100=1d1a15
x83y100=423d37
x84y100=6c6761
x85y100=8c857d
x86y100=7e776f
x87y100=726960
x88y100=70665c
x89y100=63574b
x90y100=615444
x91y100=625242
x92y100=5e4d3d
x93y100=5d4a39
x94y100=614e3d
x95y100=584735
x96y100=4f3e2c
x97y100=453420
x98y100=433421
x99y100=413421
x100y100=453827
x101y100=483b2a
x102y100=493e2c
x103y100=453c2d
x104y100=3e3727
x105y100=3b3827
x106y100=46412d
x107y100=7e735d
x108y100=9b8f77
x109y100=837761
x110y100=564936
x111y100=2f2615
x112y100=3c3324
x113y100=615444
x114y100=695c4c
x115y100=5e5043
x116y100=63554a
x117y100=463931
x118y100=382e25
x119y100=2b2118
x120y100=282015
x121y100=282015
x122y100=2e281c
x123y100=292317
x124y100=302c21
x125y100=2a251f
x126y100=2a251f
x127y100=28281e
x128y100=2b2b21
x129y100=2c2721
x130y100=27221c
x131y100=1f1f17
x132y100=202119
x133y100=1b1e17
x134y100=161912
x135y100=151712
x136y100=151611
x137y100=15140f
x138y100=13120d
x139y100=171611
x140y100=181913
x141y100=1b1c16
x142y100=1b1c17
x143y100=1d1e19
x144y100=1e1f1a
x145y100=1c1f18
x146y100=26261e
x147y100=3f382e
x148y100=6c6052
x149y100=8e7d6d
x150y100=b6a490
x151y100=d2c0ac
x152y100=e2d0ba
x153y100=f0dcc4
x154y100=f0dac2
x155y100=ead6be
x156y100=ecd8c0
x157y100=dfcab5
x158y100=ddc9b1
x159y100=dfcbb2
x160y100=dccbaf
x161y100=e2d0b8
x162y100=e5d5be
x163y100=e0d0b9
x164y100=e1d1b8
x165y100=deceb5
x166y100=d9c9b0
x167y100=d1c1a8
x168y100=d4c4aa
x169y100=d4c3a7
x170y100=dbc8aa
x171y100=dfcaad
x172y100=e8d3b4
x173y100=e9d2b2
x174y100=ead3b3
x175y100=edd4b5
x176y100=edd4b5
x1y101=a4b0bc
x2y101=a4b0bc
x3y101=a6b4bf
x4y101=a6b4bf
x5y101=aab6c2
x6y101=a8b6c1
x7y101=a7b5c2
x8y101=abb9c6
x9y101=aab8c5
x10y101=adbbc8
x11y101=a8b8c5
x12y101=a5b5c2
x13y101=a3b0c0
x14y101=a4b1c1
x15y101=a7b4c4
x16y101=a6b3c3
x17y101=acb9c9
x18y101=afbccc
x19y101=aab7c7
x20y101=aab7c7
x21y101=acbac7
x22y101=b3c1ce
x23y101=aebcc9
x24y101=aebcc9
x25y101=aebcc9
x26y101=b3c1ce
x27y101=b5c3d0
x28y101=b2c0cd
x29y101=b6c4d1
x30y101=b3c1ce
x31y101=b8c6d3
x32y101=b9c7d4
x33y101=becad8
x34y101=b9c5d3
x35y101=beccd9
x36y101=beccd9
x37y101=b7c5d0
x38y101=b8c6d1
x39y101=b8c6d1
x40y101=b7c5d0
x41y101=b7c5d0
x42y101=bdc9d5
x43y101=c4ced8
x44y101=c0c9d2
x45y101=b4bbc3
x46y101=73787b
x47y101=1d221e
x48y101=1a1c17
x49y101=1f201a
x50y101=1f1e19
x51y101=1f201b
x52y101=1d1e19
x53y101=1e1f1a
x54y101=21221c
x55y101=1e1f19
x56y101=21221c
x57y101=23241e
x58y101=252620
x59y101=2b2a25
x60y101=35352d
x61y101=36332c
x62y101=3b3831
x63y101=3a3730
x64y101=44413a
x65y101=58554e
x66y101=5f5c55
x67y101=5e5b54
x68y101=5f5c55
x69y101=65655d
x70y101=5f5f57
x71y101=605f5a
x72y101=696a64
x73y101=62635d
x74y101=474a43
x75y101=3a3d36
x76y101=33362f
x77y101=2c2d27
x78y101=24251f
x79y101=272822
x80y101=2c2b26
x81y101=4e4b46
x82y101=716e69
x83y101=79746e
x84y101=6b645e
x85y101=6b625b
x86y101=706760
x87y101=665c53
x88y101=5a5044
x89y101=6b5f51
x90y101=645747
x91y101=5f4f3f
x92y101=594838
x93y101=594635
x94y101=544130
x95y101=493826
x96y101=4c3b29
x97y101=4d3e2b
x98y101=4e412e
x99y101=4e4131
x100y101=4e4131
x101y101=493d2d
x102y101=433a29
x103y101=3e3727
x104y101=3a3426
x105y101=3a362a
x106y101=2b271b
x107y101=1f190d
x108y101=241e12
x109y101=1f1b0f
x110y101=1e1a0f
x111y101=242015
x112y101=2c251b
x113y101=373026
x114y101=4f473c
x115y101=453b31
x116y101=382e24
x117y101=281f18
x118y101=342b24
x119y101=3f352b
x120y101=4c4236
x121y101=3f3327
x122y101=2a2014
x123y101=2f271c
x124y101=312a20
x125y101=2f2822
x126y101=2f2a24
x127y101=332e28
x128y101=29261f
x129y101=28251e
x130y101=2b2821
x131y101=24241c
x132y101=181911
x133y101=181b14
x134y101=171a13
x135y101=171813
x136y101=151410
x137y101=161510
x138y101=181712
x139y101=181913
x140y101=141611
x141y101=191b16
x142y101=1b1d18
x143y101=1b1c17
x144y101=21221c
x145y101=22231b
x146y101=24251d
x147y101=292921
x148y101=423e35
x149y101=5c554b
x150y101=6a6056
x151y101=766a5e
x152y101=897a67
x153y101=c1ad92
x154y101=ead5b8
x155y101=ebd6bb
x156y101=e9d3bc
x157y101=e4cfba
x158y101=e3cfb7
x159y101=e1d0b4
x160y101=e5d4b8
x161y101=e6d4bc
x162y101=e4d2ba
x163y101=dbc9b1
x164y101=d2c1a7
x165y101=cab99f
x166y101=c6b59b
x167y101=ccbba1
x168y101=d5c4a8
x169y101=dac6ab
x170y101=dcc9ab
x171y101=e0cbae
x172y101=e7d2b3
x173y101=ecd5b5
x174y101=ead3b3
x175y101=efd7b5
x176y101=edd5b3
x1y102=a2aeba
x2y102=a3afbb
x3y102=a4b0bc
x4y102=a5b1bd
x5y102=a9b5c1
x6y102=a6b4bf
x7y102=a4b2bf
x8y102=a6b4c1
x9y102=a3b1be
x10y102=acbac7
x11y102=a6b4c1
x12y102=a2b0bd
x13y102=9facbc
x14y102=a5b2c2
x15y102=a8b5c5
x16y102=aab7c7
x17y102=a9b6c6
x18y102=a9b6c6
x19y102=a9b6c6
x20y102=a6b3c3
x21y102=adbbc8
x22y102=aab8c5
x23y102=b2c0cd
x24y102=adbbc8
x25y102=abb9c6
x26y102=b0becb
x27y102=b1bfcc
x28y102=b5c3d0
x29y102=b1bfcc
x30y102=b4c2cf
x31y102=b0becb
x32y102=b9c7d4
x33y102=bac6d4
x34y102=becad8
x35y102=bbc9d6
x36y102=b4c2cf
x37y102=b8c6d1
x38y102=b4c2cd
x39y102=bac8d1
x40y102=c0ced7
x41y102=c1cfda
x42y102=bfcdd8
x43y102=c3cfdb
x44y102=bcc6d2
x45y102=b8c1ca
x46y102=a9b0b6
x47y102=505656
x48y102=181d17
x49y102=1c1d17
x50y102=1d1e18
x51y102=1d1e19
x52y102=1d1e19
x53y102=21221d
x54y102=21221d
x55y102=1d1e19
x56y102=20211b
x57y102=21221c
x58y102=262721
x59y102=2c2c24
x60y102=303028
x61y102=36332a
x62y102=2f2c23
x63y102=312c26
x64y102=38332d
x65y102=45403a
x66y102=4b473e
x67y102=57524c
x68y102=514e47
x69y102=54514a
x70y102=606058
x71y102=54534e
x72y102=595a54
x73y102=5b5c56
x74y102=61625c
x75y102=73746e
x76y102=757670
x77y102=777671
x78y102=76766e
x79y102=78756e
x80y102=827f78
x81y102=807b75
x82y102=726d67
x83y102=726b65
x84y102=685f58
x85y102=625952
x86y102=675d54
x87y102=62584e
x88y102=63574b
x89y102=5f5242
x90y102=4e3e2f
x91y102=4a3929
x92y102=4c3b2b
x93y102=483524
x94y102=52412f
x95y102=51402e
x96y102=4b3c29
x97y102=483b2a
x98y102=443927
x99y102=423427
x100y102=3f3325
x101y102=382f1e
x102y102=3f3828
x103y102=3c3628
x104y102=3b372c
x105y102=2a271e
x106y102=201d16
x107y102=211e17
x108y102=1c1912
x109y102=191813
x110y102=1d1e18
x111y102=25251d
x112y102=2a271e
x113y102=2d261e
x114y102=332b20
x115y102=34281c
x116y102=2e2418
x117y102=201710
x118y102=201911
x119y102=271f14
x120y102=41372b
x121y102=55493b
x122y102=483c30
x123y102=2f251b
x124y102=2e251c
x125y102=342d25
x126y102=322b25
x127y102=35302a
x128y102=302b25
x129y102=28251e
x130y102=26261e
x131y102=34342c
x132y102=2a2b23
x133y102=1d1e18
x134y102=181913
x135y102=1a1915
x136y102=181713
x137y102=161511
x138y102=161712
x139y102=191b16
x140y102=1a1c17
x141y102=181a17
x142y102=1a1c19
x143y102=1f201b
x144y102=23241e
x145y102=252620
x146y102=292a22
x147y102=32332d
x148y102=3c3b36
x149y102=42413c
x150y102=3d3a35
x151y102=4a433b
x152y102=584f40
x153y102=6d5d46
x154y102=b5a488
x155y102=e5d1b6
x156y102=ead4bc
x157y102=e6d2ba
x158y102=e8d4bc
x159y102=e4d3b9
x160y102=e6d5b9
x161y102=e9d8be
x162y102=dac9af
x163y102=c2b197
x164y102=c0af95
x165y102=c3b298
x166y102=c8b79b
x167y102=d0bfa3
x168y102=d7c6a8
x169y102=dfccae
x170y102=e0cdad
x171y102=e6d1b2
x172y102=e6d1b2
x173y102=edd6b6
x174y102=eed7b7
x175y102=efd7b5
x176y102=eed6b4
x1y103=acb6c0
x2y103=adb7c1
x3y103=abb5bf
x4y103=a9b6bf
x5y103=abb8c1
x6y103=aab8c1
x7y103=a5b3be
x8y103=a6b4bf
x9y103=a2b0bb
x10y103=a4b2bd
x11y103=a2b0bd
x12y103=a9b7c4
x13y103=a7b5c2
x14y103=aab8c5
x15y103=adb9c7
x16y103=abb7c5
x17y103=abb9c6
x18y103=abb9c6
x19y103=aab8c5
x20y103=abb9c6
x21y103=acbac7
x22y103=acbac7
x23y103=adb9c7
x24y103=aebac8
x25y103=afbbc9
x26y103=b2becc
x27y103=b4c2cf
x28y103=b0becb
x29y103=b2c0cd
x30y103=b2c0cd
x31y103=b5c3d0
x32y103=b3c1ce
x33y103=b4c0ce
x34y103=b2becc
x35y103=b4c2cd
x36y103=b1c2cc
x37y103=b7c5d0
x38y103=beccd7
x39y103=beccd5
x40y103=beccd5
x41y103=bbc9d4
x42y103=bccad5
x43y103=bdc9d7
x44y103=b8c4d2
x45y103=bbc5d1
x46y103=b2bbc2
x47y103=9ba3a5
x48y103=313632
x49y103=151a14
x50y103=1c1f18
x51y103=1c1e19
x52y103=1a1c17
x53y103=1b1d1a
x54y103=1c1e19
x55y103=1f201b
x56y103=20211c
x57y103=21201b
x58y103=22211c
x59y103=2b2821
x60y103=312e27
x61y103=3a362d
x62y103=353128
x63y103=362f27
x64y103=352e26
x65y103=383129
x66y103=3b342a
x67y103=433c34
x68y103=4c483f
x69y103=545047
x70y103=57544b
x71y103=535049
x72y103=505048
x73y103=3c3c34
x74y103=44443c
x75y103=484840
x76y103=4a4a42
x77y103=514e47
x78y103=555148
x79y103=5a534b
x80y103=635c54
x81y103=6b645c
x82y103=6e655e
x83y103=6f665f
x84y103=5f554c
x85y103=655b52
x86y103=5c4f46
x87y103=4b3f33
x88y103=443629
x89y103=3d3020
x90y103=473727
x91y103=4d3c2c
x92y103=513e2f
x93y103=4c3b2b
x94y103=453424
x95y103=443323
x96y103=3d2d1d
x97y103=3a2e1e
x98y103=362d1e
x99y103=392d1f
x100y103=403728
x101y103=413829
x102y103=3c3427
x103y103=3c352b
x104y103=2d2a23
x105y103=1f1e19
x106y103=161711
x107y103=17170f
x108y103=1d1d15
x109y103=1a1b13
x110y103=171810
x111y103=1b1b13
x112y103=28241b
x113y103=2a2016
x114y103=291b0e
x115y103=4f3e2c
x116y103=5b4e3d
x117y103=241b12
x118y103=1c1711
x119y103=1d1910
x120y103=2e281c
x121y103=493d2f
x122y103=4e4234
x123y103=3b3127
x124y103=2b2219
x125y103=302921
x126y103=2f2820
x127y103=393327
x128y103=363227
x129y103=302d26
x130y103=282820
x131y103=313129
x132y103=2c2920
x133y103=221f18
x134y103=1f1c17
x135y103=1b1a16
x136y103=1a1917
x137y103=171715
x138y103=181914
x139y103=171914
x140y103=191b16
x141y103=1b1c17
x142y103=1b1c17
x143y103=1d1e19
x144y103=23241f
x145y103=242621
x146y103=262823
x147y103=30312b
x148y103=3c3b36
x149y103=454440
x150y103=44433f
x151y103=494641
x152y103=433c34
x153y103=3f3529
x154y103=5f5241
x155y103=d0bea6
x156y103=e7d3b8
x157y103=e7d3bb
x158y103=e5d1b9
x159y103=e5d3bb
x160y103=e6d5bb
x161y103=e6d5bb
x162y103=ccbba1
x163y103=bcab91
x164y103=c3b296
x165y103=c6b599
x166y103=cebda1
x167y103=d8c4a9
x168y103=ddcaac
x169y103=e3ceb1
x170y103=e4cfb0
x171y103=ead3b4
x172y103=ecd5b5
x173y103=e9d0b1
x174y103=eed5b6
x175y103=efd6b7
x176y103=ecd3b4
x1y104=b2bcc6
x2y104=b0bac4
x3y104=b2bcc6
x4y104=adb7c1
x5y104=adbac3
x6y104=a8b5be
x7y104=a7b3bf
x8y104=a7b5c0
x9y104=a6b4bf
x10y104=aab8c3
x11y104=a6b2c0
x12y104=aab6c4
x13y104=aab6c4
x14y104=abb7c5
x15y104=aab6c4
x16y104=abb7c5
x17y104=a9b7c4
x18y104=a9b7c4
x19y104=acbac7
x20y104=acbac7
x21y104=aebcc9
x22y104=a9b7c4
x23y104=b0bcca
x24y104=adb9c7
x25y104=afbbc9
x26y104=b0bcca
x27y104=b5c3d0
x28y104=b3c1ce
x29y104=b1bfcc
x30y104=b4c2cf
x31y104=b5c3d0
x32y104=b2c0cd
x33y104=b0bcca
x34y104=afbbc9
x35y104=b3c1cc
x36y104=b7c5d0
x37y104=bbc9d4
x38y104=bfcdd8
x39y104=b9c7d2
x40y104=bac8d3
x41y104=b7c5d0
x42y104=bac8d3
x43y104=bdcbd8
x44y104=bdc9d7
x45y104=b9c5d1
x46y104=b3bdc6
x47y104=afb8bd
x48y104=808686
x49y104=1e2420
x50y104=141913
x51y104=181d17
x52y104=191b16
x53y104=191b16
x54y104=1b1d18
x55y104=1e1f1a
x56y104=1e1f1a
x57y104=201f1a
x58y104=23221d
x59y104=24211c
x60y104=2b2821
x61y104=322d27
x62y104=312d24
x63y104=343027
x64y104=383129
x65y104=3c352b
x66y104=423930
x67y104=463f35
x68y104=4e473d
x69y104=4a4339
x70y104=524b43
x71y104=534f46
x72y104=545047
x73y104=49453c
x74y104=3f3b32
x75y104=38342b
x76y104=3c382f
x77y104=413a32
x78y104=494238
x79y104=51483f
x80y104=584f46
x81y104=584e45
x82y104=584e45
x83y104=5d5047
x84y104=63564d
x85y104=56483f
x86y104=54463b
x87y104=4a3c2f
x88y104=5a4a3b
x89y104=5f4f3f
x90y104=503f2f
x91y104=513e2f
x92y104=4d3a2b
x93y104=4c3b2b
x94y104=443424
x95y104=423222
x96y104=3e3121
x97y104=3b3223
x98y104=3f3529
x99y104=3e3428
x100y104=3e3629
x101y104=3b3326
x102y104=3b3527
x103y104=363227
x104y104=24211a
x105y104=181712
x106y104=1d1e18
x107y104=22211c
x108y104=212119
x109y104=181810
x110y104=16160c
x111y104=1a160d
x112y104=2b2117
x113y104=524032
x114y104=7f6a59
x115y104=9e8873
x116y104=7e6b5a
x117y104=322920
x118y104=15120d
x119y104=17170f
x120y104=211d12
x121y104=33291d
x122y104=3b2f23
x123y104=40362c
x124y104=2c2219
x125y104=2c2219
x126y104=2f271c
x127y104=403929
x128y104=41392c
x129y104=393228
x130y104=2e2a21
x131y104=2c281f
x132y104=27241b
x133y104=29241e
x134y104=232019
x135y104=1c1b17
x136y104=1c1b19
x137y104=191917
x138y104=1b1b19
x139y104=1c1d18
x140y104=1b1d18
x141y104=1e1f1a
x142y104=1f201b
x143y104=1d1e19
x144y104=22231e
x145y104=292b26
x146y104=292b26
x147y104=2c2b26
x148y104=2c2b26
x149y104=31322d
x150y104=2f2f2d
x151y104=33322e
x152y104=383530
x153y104=362f29
x154y104=3c3226
x155y104=92816d
x156y104=d9c5ac
x157y104=e6d2b9
x158y104=e5d1b9
x159y104=e7d5bd
x160y104=e5d3bb
x161y104=d8c7ad
x162y104=bfae94
x163y104=c1b094
x164y104=c4b397
x165y104=cfbea2
x166y104=d4c3a5
x167y104=dac7a9
x168y104=decbab
x169y104=e1ccad
x170y104=e7d2b3
x171y104=e6cfaf
x172y104=e9d2b2
x173y104=eed5b6
x174y104=edd4b5
x175y104=eed5b6
x176y104=f1d8b9
x1y105=b2bbc4
x2y105=b3bcc5
x3y105=afb9c2
x4y105=adb7c0
x5y105=afb9c3
x6y105=a6b3bc
x7y105=a7b4bd
x8y105=a9b7c0
x9y105=acb9c2
x10y105=a8b5be
x11y105=a9b5c1
x12y105=acb8c4
x13y105=aab6c2
x14y105=aab6c2
x15y105=abb7c3
x16y105=acb8c4
x17y105=aebac6
x18y105=aab6c2
x19y105=afbbc7
x20y105=b2beca
x21y105=aebac6
x22y105=afbbc7
x23y105=afbbc7
x24y105=afbbc7
x25y105=afbbc7
x26y105=abb7c3
x27y105=b8c4d0
x28y105=b1bdc9
x29y105=b4c0cc
x30y105=b7c3cf
x31y105=b5c1cd
x32y105=afbbc7
x33y105=adb9c7
x34y105=b6c2d0
x35y105=b9c5d1
x36y105=bbc9d2
x37y105=bdcbd6
x38y105=bbc9d4
x39y105=b6c4cf
x40y105=bbc7d3
x41y105=bac6d2
x42y105=b7c5d0
x43y105=b4c2cf
x44y105=b9c7d4
x45y105=b7c3cf
x46y105=b6c3cc
x47y105=b6c1c7
x48y105=a9b3b5
x49y105=606968
x50y105=161c1a
x51y105=131814
x52y105=161b15
x53y105=191b16
x54y105=1a1d16
x55y105=1c1d17
x56y105=1e1f19
x57y105=1f1e1a
x58y105=201f1b
x59y105=252420
x60y105=24231e
x61y105=26231e
x62y105=27241d
x63y105=2e2b22
x64y105=332f26
x65y105=342d23
x66y105=3b342a
x67y105=3b3328
x68y105=453d32
x69y105=494136
x70y105=453d32
x71y105=453b31
x72y105=4b4137
x73y105=534940
x74y105=4d433a
x75y105=453c33
x76y105=4b4239
x77y105=453c33
x78y105=4b4338
x79y105=493f35
x80y105=483e34
x81y105=473b2f
x82y105=493d31
x83y105=483a2f
x84y105=4c3e31
x85y105=544437
x86y105=544435
x87y105=4d3d2e
x88y105=433222
x89y105=423121
x90y105=443120
x91y105=443120
x92y105=453223
x93y105=453424
x94y105=403021
x95y105=3b2e1e
x96y105=3b2f21
x97y105=3a3122
x98y105=372f22
x99y105=372f24
x100y105=302a1e
x101y105=312d21
x102y105=2c281c
x103y105=252316
x104y105=201e12
x105y105=1e1b12
x106y105=201d16
x107y105=1c1914
x108y105=1a1914
x109y105=181810
x110y105=1a160b
x111y105=281a0f
x112y105=695244
x113y105=947767
x114y105=a78675
x115y105=967765
x116y105=755e50
x117y105=372d24
x118y105=14130e
x119y105=13140e
x120y105=1a1a12
x121y105=271e15
x122y105=34271e
x123y105=40332a
x124y105=403229
x125y105=31231a
x126y105=33251a
x127y105=352818
x128y105=493c2c
x129y105=493d31
x130y105=3a3026
x131y105=322b21
x132y105=2c281d
x133y105=2a271e
x134y105=25251d
x135y105=23221d
x136y105=1f1e1a
x137y105=1f1e1a
x138y105=1c1d18
x139y105=1f201b
x140y105=1d1e19
x141y105=262721
x142y105=292a24
x143y105=25241f
x144y105=24251f
x145y105=23241e
x146y105=23241e
x147y105=262520
x148y105=23221d
x149y105=242520
x150y105=252621
x151y105=242520
x152y105=25241f
x153y105=2c2922
x154y105=2d241b
x155y105=3c2c1c
x156y105=b09b86
x157y105=e1cdb4
x158y105=e6d2b9
x159y105=e2d0b8
x160y105=deccb4
x161y105=c1b096
x162y105=c0ac91
x163y105=c4b095
x164y105=cdb99e
x165y105=d2bfa1
x166y105=dac7a9
x167y105=dbc6a9
x168y105=dec9aa
x169y105=e3ccad
x170y105=e5ceae
x171y105=e7d0b0
x172y105=e8d1b1
x173y105=eed5b6
x174y105=eed5b6
x175y105=f3dabb
x176y105=f3dabb
x1y106=aeb7c0
x2y106=aeb7c0
x3y106=acb6bf
x4y106=adb7c0
x5y106=a8b2bc
x6y106=a7b4bd
x7y106=a8b5be
x8y106=a7b4bd
x9y106=adb7c1
x10y106=abb8c1
x11y106=adb9c5
x12y106=a6b2be
x13y106=aab6c2
x14y106=abb5c1
x15y106=aab6c2
x16y106=abb7c3
x17y106=aebac6
x18y106=a9b5c1
x19y106=afbbc7
x20y106=aab6c2
x21y106=afbbc7
x22y106=adb9c5
x23y106=b1bdc9
x24y106=aebac6
x25y106=adb9c5
x26y106=b2beca
x27y106=aebac6
x28y106=adb9c5
x29y106=aebac6
x30y106=afbbc7
x31y106=b0bcc8
x32y106=a6b2be
x33y106=a9b5c3
x34y106=afbbc7
x35y106=b8c5ce
x36y106=bac7d0
x37y106=b4c2cd
x38y106=b5c3ce
x39y106=b0bcca
x40y106=b1bdcb
x41y106=bac6d2
x42y106=bac8d3
x43y106=b5c5d2
x44y106=b3c3d0
x45y106=b7c5d0
x46y106=b9c6cf
x47y106=b7c1ca
x48y106=b0bbc1
x49y106=a2acae
x50y106=303938
x51y106=121816
x52y106=141915
x53y106=181a15
x54y106=191c15
x55y106=1d1e18
x56y106=1e1f19
x57y106=21201b
x58y106=22211c
x59y106=25241f
x60y106=292621
x61y106=2a2722
x62y106=27221c
x63y106=2b271e
x64y106=312d22
x65y106=312a20
x66y106=352f23
x67y106=393126
x68y106=423a2f
x69y106=3f352b
x70y106=463c32
x71y106=5e5246
x72y106=4d4135
x73y106=42352c
x74y106=45382f
x75y106=43392f
x76y106=463c32
x77y106=4a4036
x78y106=4a4034
x79y106=54473e
x80y106=463a2e
x81y106=47392c
x82y106=4c3c2d
x83y106=4f3f32
x84y106=574537
x85y106=574537
x86y106=544333
x87y106=534232
x88y106=503f2f
x89y106=493625
x90y106=422f1e
x91y106=422f1e
x92y106=3e2d1d
x93y106=3e2e1f
x94y106=3a2d1d
x95y106=3c3022
x96y106=372e1f
x97y106=362f1f
x98y106=362e21
x99y106=332d21
x100y106=322e23
x101y106=2d2b1f
x102y106=28261a
x103y106=252317
x104y106=242216
x105y106=211e15
x106y106=1a1710
x107y106=16130e
x108y106=1a1613
x109y106=171611
x110y106=1e170f
x111y106=402e22
x112y106=7c6253
x113y106=927160
x114y106=7f5e4d
x115y106=6f4f42
x116y106=6a5447
x117y106=2e231d
x118y106=14110c
x119y106=15150d
x120y106=1a170e
x121y106=231a11
x122y106=312318
x123y106=463629
x124y106=645244
x125y106=594433
x126y106=4b3623
x127y106=5f4b33
x128y106=5d4b35
x129y106=544132
x130y106=564639
x131y106=40362a
x132y106=433c32
x133y106=2d2a21
x134y106=28281e
x135y106=24241c
x136y106=23221d
x137y106=1e1d18
x138y106=1e1d19
x139y106=1d1e19
x140y106=1c1d18
x141y106=262721
x142y106=2d2e28
x143y106=2b2a25
x144y106=272621
x145y106=23241e
x146y106=1f201a
x147y106=1d1c17
x148y106=1e1d18
x149y106=1e1d19
x150y106=1f201b
x151y106=20211b
x152y106=23241e
x153y106=373631
x154y106=453e36
x155y106=45372c
x156y106=786757
x157y106=d8c4ac
x158y106=e4d0b5
x159y106=e0cfb5
x160y106=d0bfa5
x161y106=ceba9f
x162y106=d1bda2
x163y106=d0bca1
x164y106=cdba9c
x165y106=cebb9d
x166y106=dac7a7
x167y106=ddc8a9
x168y106=dcc7a8
x169y106=e0c9a9
x170y106=e5ceae
x171y106=e9d2b2
x172y106=edd6b6
x173y106=f1d8b9
x174y106=f2d9ba
x175y106=f4dbbc
x176y106=f6ddbe
x1y107=b5bfc8
x2y107=afb9c2
x3y107=afb8c1
x4y107=abb5be
x5y107=a6b0b9
x6y107=a6b3bb
x7y107=abb5be
x8y107=a9b3bc
x9y107=a9b3bd
x10y107=a9b6bf
x11y107=a9b6bf
x12y107=aab7c0
x13y107=a8b5be
x14y107=a7b4bd
x15y107=acb6c0
x16y107=afb9c3
x17y107=afbcc5
x18y107=aab7c0
x19y107=acb9c2
x20y107=a8b5be
x21y107=acb9c2
x22y107=acb9c2
x23y107=b0bdc6
x24y107=b0bdc6
x25y107=aebbc4
x26y107=acb9c2
x27y107=afbcc5
x28y107=aab7c0
x29y107=acb9c2
x30y107=abb8c1
x31y107=a5b2bb
x32y107=b1bec7
x33y107=afbbc7
x34y107=b6c2ce
x35y107=b7c4cd
x36y107=b4c1ca
x37y107=b4c2cd
x38y107=adbbc6
x39y107=b1bdcb
x40y107=bbc7d5
x41y107=b8c6d1
x42y107=b6c4cf
x43y107=b3c4ce
x44y107=b2c3cd
x45y107=b7c5d0
x46y107=b5c3ce
x47y107=b5c2cb
x48y107=b5bfc8
x49y107=aab3ba
x50y107=878f92
x51y107=272d2d
x52y107=151918
x53y107=181a17
x54y107=1d1f1a
x55y107=1e1f19
x56y107=1e1d18
x57y107=24241c
x58y107=26261e
x59y107=2b2821
x60y107=2c2920
x61y107=2b271e
x62y107=30291f
x63y107=2c251b
x64y107=322c20
x65y107=332d21
x66y107=342e20
x67y107=383023
x68y107=362e21
x69y107=3b3125
x70y107=41372b
x71y107=4e4236
x72y107=4e4236
x73y107=43372b
x74y107=3f3327
x75y107=3e3226
x76y107=473b2f
x77y107=413529
x78y107=3d3123
x79y107=45372c
x80y107=4c3e31
x81y107=4b3b2c
x82y107=4b3a2a
x83y107=4e3c2e
x84y107=554233
x85y107=4e3b2c
x86y107=574433
x87y107=503d2c
x88y107=4f3c2b
x89y107=4d3c2a
x90y107=473624
x91y107=463525
x92y107=3f2e1e
x93y107=3e2e1f
x94y107=392b1e
x95y107=382e22
x96y107=352e1e
x97y107=332c1c
x98y107=322b1b
x99y107=322c20
x100y107=2b271c
x101y107=2b291d
x102y107=28251c
x103y107=26231a
x104y107=221f16
x105y107=1c1c14
x106y107=1c1c14
x107y107=201d18
x108y107=1c1815
x109y107=191512
x110y107=1f1812
x111y107=3c2e25
x112y107=584439
x113y107=644a3d
x114y107=5e4236
x115y107=5d473a
x116y107=4f3e34
x117y107=191009
x118y107=1a150f
x119y107=201911
x120y107=251c13
x121y107=3c2e23
x122y107=483628
x123y107=473521
x124y107=856f57
x125y107=866b4e
x126y107=9f8562
x127y107=cab189
x128y107=d3bb97
x129y107=c4ac92
x130y107=92806c
x131y107=5a4d3d
x132y107=585045
x133y107=373529
x134y107=2e2e24
x135y107=27271d
x136y107=212119
x137y107=212119
x138y107=1d1c17
x139y107=181914
x140y107=1a1b16
x141y107=1c1d17
x142y107=1d1e18
x143y107=1f1f17
x144y107=26261e
x145y107=1e1f19
x146y107=1b1c16
x147y107=181913
x148y107=191813
x149y107=1d1c18
x150y107=1f201a
x151y107=24251d
x152y107=26271f
x153y107=2c2b27
x154y107=3e3935
x155y107=453c35
x156y107=493b2e
x157y107=a6967d
x158y107=dfccae
x159y107=d5c1a6
x160y107=c9b59a
x161y107=d0bd9f
x162y107=d4c1a3
x163y107=d8c3a6
x164y107=dcc7aa
x165y107=dcc7aa
x166y107=ddc8a9
x167y107=dec7a8
x168y107=dfc8a8
x169y107=e2cbab
x170y107=e7d0b0
x171y107=ebd2b3
x172y107=efd6b7
x173y107=f0d7b8
x174y107=f3dabb
x175y107=f4dbbc
x176y107=f6ddbe
x1y108=b3bdc6
x2y108=adb7c0
x3y108=acb6bf
x4y108=a4aeb7
x5y108=a5afb8
x6y108=a7b1ba
x7y108=a9b3bc
x8y108=a7b1ba
x9y108=a7b1bb
x10y108=a8b2bc
x11y108=acb6c0
x12y108=a9b3bd
x13y108=aab7c0
x14y108=acb9c2
x15y108=adb7c1
x16y108=acb6c0
x17y108=a9b6bf
x18y108=aab7c0
x19y108=aab7c0
x20y108=abb8c1
x21y108=abb8c1
x22y108=adbac3
x23y108=adbac3
x24y108=b1bec7
x25y108=b0bdc6
x26y108=adbac3
x27y108=aebbc4
x28y108=acb9c2
x29y108=a8b5be
x30y108=a6b3bc
x31y108=aab7c0
x32y108=aebbc4
x33y108=b2beca
x34y108=afbbc7
x35y108=afbcc5
x36y108=b6c3cc
x37y108=b2beca
x38y108=b1bdc9
x39y108=b6c2d0
x40y108=bbc7d5
x41y108=bbc9d4
x42y108=bdcbd6
x43y108=bac8d3
x44y108=b6c4cf
x45y108=b4c2cd
x46y108=b6c4cf
x47y108=bbc7d3
x48y108=b1bec7
x49y108=b4bdc6
x50y108=aab3b8
x51y108=6b7375
x52y108=202626
x53y108=131716
x54y108=181a17
x55y108=1b1c17
x56y108=21201b
x57y108=22221a
x58y108=26261c
x59y108=2b281f
x60y108=2d2a21
x61y108=312d22
x62y108=322b21
x63y108=362e23
x64y108=322a1d
x65y108=2e2619
x66y108=352d20
x67y108=362e21
x68y108=383023
x69y108=3a3024
x70y108=3c3226
x71y108=41372b
x72y108=3d3125
x73y108=413529
x74y108=45392d
x75y108=45392d
x76y108=45392d
x77y108=47392c
x78y108=483a2d
x79y108=403225
x80y108=483829
x81y108=4c3b2b
x82y108=514030
x83y108=4b3829
x84y108=503d2e
x85y108=5e4938
x86y108=63503f
x87y108=604d3c
x88y108=554432
x89y108=51402e
x90y108=4b3a28
x91y108=443323
x92y108=3f2f20
x93y108=392b1e
x94y108=372b1d
x95y108=332b1e
x96y108=332b1e
x97y108=342c1f
x98y108=322c1e
x99y108=2e2a1f
x100y108=2f2d21
x101y108=2d2a21
x102y108=29261d
x103y108=2a2720
x104y108=25221b
x105y108=22221a
x106y108=202018
x107y108=1e1b16
x108y108=191611
x109y108=191512
x110y108=1d1a15
x111y108=2f261d
x112y108=3a2d24
x113y108=423026
x114y108=443228
x115y108=32241b
x116y108=21170e
x117y108=231a13
x118y108=251c15
x119y108=31241b
x120y108=524439
x121y108=6d5b4d
x122y108=614c3b
x123y108=624c34
x124y108=a78e6f
x125y108=a68862
x126y108=c6a97f
x127y108=dfc296
x128y108=ebd2aa
x129y108=edd8bb
x130y108=f0deca
x131y108=c5b8a7
x132y108=796f63
x133y108=474337
x134y108=3a382c
x135y108=312e25
x136y108=27271d
x137y108=202018
x138y108=1c1b16
x139y108=1e1f19
x140y108=23241e
x141y108=23241e
x142y108=2c2c24
x143y108=2f2c23
x144y108=1f1f17
x145y108=1d1c17
x146y108=191a14
x147y108=181913
x148y108=1b1c16
x149y108=22211c
x150y108=2c2b26
x151y108=33342c
x152y108=2d2e26
x153y108=282722
x154y108=33302b
x155y108=413a34
x156y108=473a31
x157y108=5b4a36
x158y108=bfab92
x159y108=cab799
x160y108=cfba9d
x161y108=d6c3a5
x162y108=d8c5a7
x163y108=dac5a8
x164y108=dfcaab
x165y108=e0cbac
x166y108=ddc8a9
x167y108=dfc8a8
x168y108=e3ccac
x169y108=e7d0b0
x170y108=e9d2b2
x171y108=ecd3b4
x172y108=ecd3b4
x173y108=f1d8b9
x174y108=f2d9ba
x175y108=f4dbbc
x176y108=f5dcbd
x1y109=b2bcc6
x2y109=b0bac4
x3y109=afb9c3
x4y109=a6b0ba
x5y109=a3adb7
x6y109=a5afb9
x7y109=a6b0ba
x8y109=a7b1bb
x9y109=a6b0ba
x10y109=acb6c0
x11y109=a9b3bd
x12y109=a6b3bc
x13y109=aab4bd
x14y109=a6b0b9
x15y109=a3b0b8
x16y109=a3b0b8
x17y109=aab4bd
x18y109=adb7c0
x19y109=afb9c2
x20y109=adb7c0
x21y109=aeb8c1
x22y109=afb9c2
x23y109=aeb8c1
x24y109=afb9c2
x25y109=adb7c0
x26y109=afb9c2
x27y109=acb6bf
x28y109=abb5be
x29y109=a7b4bd
x30y109=a8b5be
x31y109=acb9c2
x32y109=b1bec7
x33y109=b1bec7
x34y109=afbcc5
x35y109=b1bfc8
x36y109=aebbc4
x37y109=b2bfc8
x38y109=b5c2cb
x39y109=b9c5d1
x40y109=bfcdd8
x41y109=bccad7
x42y109=b8c6d3
x43y109=b2c0cb
x44y109=b5c3ce
x45y109=b4c2cb
x46y109=b3c1ca
x47y109=b6c2ce
x48y109=b2bfc8
x49y109=b7c0c9
x50y109=aab3ba
x51y109=a2aaad
x52y109=858a8d
x53y109=727679
x54y109=57585a
x55y109=373938
x56y109=21221d
x57y109=1d1e18
x58y109=202119
x59y109=24241a
x60y109=2c2920
x61y109=2e2a1f
x62y109=30291f
x63y109=342c21
x64y109=372d21
x65y109=3a3024
x66y109=352c1d
x67y109=33291d
x68y109=32281c
x69y109=33291d
x70y109=362c20
x71y109=362c22
x72y109=3b3127
x73y109=3b3127
x74y109=3b3127
x75y109=3e3226
x76y109=413529
x77y109=483a2d
x78y109=483b2b
x79y109=4b3b2c
x80y109=483727
x81y109=483727
x82y109=4e3d2b
x83y109=4d3a29
x84y109=544130
x85y109=4f3c2b
x86y109=4d3a29
x87y109=53402f
x88y109=52412f
x89y109=4c3b2b
x90y109=483828
x91y109=483829
x92y109=453828
x93y109=372b1d
x94y109=33291d
x95y109=312b1f
x96y109=312b1f
x97y109=312a20
x98y109=2c251b
x99y109=2e2a21
x100y109=28251c
x101y109=26261a
x102y109=28281e
x103y109=28251e
x104y109=29261f
x105y109=29251c
x106y109=211d14
x107y109=1c1711
x108y109=19140e
x109y109=161510
x110y109=15160e
x111y109=211f13
x112y109=2a261a
x113y109=30271e
x114y109=292019
x115y109=251e16
x116y109=251e16
x117y109=292017
x118y109=382b22
x119y109=564436
x120y109=6b5849
x121y109=6c5648
x122y109=715b46
x123y109=73593e
x124y109=b89c77
x125y109=b99c70
x126y109=d3b68a
x127y109=e9d0a8
x128y109=f8e4c3
x129y109=fff2d8
x130y109=fdf2de
x131y109=faeede
x132y109=e4dbcc
x133y109=989083
x134y109=565044
x135y109=39352a
x136y109=27271f
x137y109=22211c
x138y109=20211b
x139y109=21201b
x140y109=23221d
x141y109=26261c
x142y109=312e25
x143y109=37342b
x144y109=2b2b23
x145y109=1d1c18
x146y109=181914
x147y109=1a1b16
x148y109=1e1f19
x149y109=26261e
x150y109=32322a
x151y109=363530
x152y109=3b3a35
x153y109=2b2b23
x154y109=2b271e
x155y109=38312b
x156y109=43362e
x157y109=49372b
x158y109=836e5b
x159y109=c7b398
x160y109=d4c1a1
x161y109=d7c2a3
x162y109=dcc7a8
x163y109=dbc6a7
x164y109=dcc7a8
x165y109=e0c9aa
x166y109=e1caaa
x167y109=e3ccac
x168y109=e5ceae
x169y109=e7ceaf
x170y109=ead1b2
x171y109=edd4b5
x172y109=ead1b2
x173y109=f1d8b9
x174y109=f2d9ba
x175y109=f4dbbc
x176y109=f4dbbc
x1y110=b1bbc5
x2y110=aab4be
x3y110=aab7c0
x4y110=a7b4bd
x5y110=a8b2bc
x6y110=a5afb9
x7y110=a1aeb7
x8y110=a1abb5
x9y110=9ea8b2
x10y110=a4aeb8
x11y110=a6b0ba
x12y110=a8b5be
x13y110=a5afb8
x14y110=a4aeb7
x15y110=9facb4
x16y110=a7b4bc
x17y110=acb6bf
x18y110=adb7c0
x19y110=aeb8c1
x20y110=aeb8c1
x21y110=afb9c2
x22y110=aeb8c1
x23y110=acb6bf
x24y110=abb5be
x25y110=acb6bf
x26y110=abb5be
x27y110=a7b1ba
x28y110=a7b1ba
x29y110=adbac3
x30y110=b2bfc8
x31y110=b0bdc6
x32y110=abb8c1
x33y110=b1bec7
x34y110=b1bec7
x35y110=afbcc5
x36y110=afbcc5
x37y110=b1bec7
x38y110=b7c4cd
x39y110=b8c4d0
x40y110=b9c7d2
x41y110=bac8d5
x42y110=b4c2cf
x43y110=b3bfcb
x44y110=b6c2ce
x45y110=b4c1ca
x46y110=bac7d0
x47y110=b8c4d0
x48y110=b3c0c9
x49y110=b3bdc6
x50y110=a7b0b7
x51y110=a7aeb4
x52y110=9aa2a5
x53y110=868b8f
x54y110=898e91
x55y110=8b8f92
x56y110=8e9291
x57y110=7a7f7b
x58y110=5b5d58
x59y110=3e413a
x60y110=262520
x61y110=2c2922
x62y110=2e2a21
x63y110=31291e
x64y110=332b1e
x65y110=32281c
x66y110=342a1e
x67y110=342a1e
x68y110=33291d
x69y110=352b1f
x70y110=352b1f
x71y110=342c21
x72y110=352d22
x73y110=382e24
x74y110=41372b
x75y110=44382c
x76y110=45392b
x77y110=46382b
x78y110=423525
x79y110=443425
x80y110=4a3929
x81y110=443323
x82y110=453422
x83y110=4b3827
x84y110=463322
x85y110=493625
x86y110=493826
x87y110=4a3927
x88y110=463724
x89y110=413121
x90y110=392c1b
x91y110=3a2d1d
x92y110=3a2e20
x93y110=362c20
x94y110=342c1f
x95y110=322c20
x96y110=2e2a1f
x97y110=2a261d
x98y110=29251c
x99y110=2a2720
x100y110=202018
x101y110=212318
x102y110=1e1f17
x103y110=1e1e16
x104y110=1d1a13
x105y110=261f17
x106y110=2b2219
x107y110=31281f
x108y110=2f261d
x109y110=1f1c15
x110y110=191911
x111y110=1a1a10
x112y110=252317
x113y110=242118
x114y110=25221b
x115y110=25221b
x116y110=211d14
x117y110=21180f
x118y110=392d21
x119y110=574537
x120y110=675445
x121y110=6b5645
x122y110=59432c
x123y110=9c8261
x124y110=bea179
x125y110=c4a879
x126y110=dcc196
x127y110=eedab9
x128y110=fff3d9
x129y110=fffceb
x130y110=fffff1
x131y110=fffcef
x132y110=faf1e2
x133y110=f7ede1
x134y110=c2baad
x135y110=5e584c
x136y110=322e25
x137y110=27241d
x138y110=22211c
x139y110=22211c
x140y110=23221d
x141y110=27241b
x142y110=302d24
x143y110=3e3a31
x144y110=39362f
x145y110=2a2925
x146y110=1e1d19
x147y110=1b1c17
x148y110=1e1f19
x149y110=2a2a22
x150y110=34342c
x151y110=3a3935
x152y110=393631
x153y110=333029
x154y110=312e25
x155y110=332c26
x156y110=3d322c
x157y110=3d2c22
x158y110=604d3e
x159y110=beaa8f
x160y110=d7c2a3
x161y110=dac5a6
x162y110=dbc6a7
x163y110=d9c4a5
x164y110=dbc6a7
x165y110=e0c9a9
x166y110=e0c9a9
x167y110=e2cbab
x168y110=e6cfaf
x169y110=e8cfb0
x170y110=ebd2b3
x171y110=edd4b5
x172y110=ecd3b4
x173y110=efd6b7
x174y110=f1d8b9
x175y110=f2d9ba
x176y110=f3dabb
x1y111=aebbc4
x2y111=a8b5be
x3y111=adbac3
x4y111=abb8c1
x5y111=a5b2bb
x6y111=9ca9b2
x7y111=9fa9b3
x8y111=9fa9b3
x9y111=a1abb5
x10y111=a6b0ba
x11y111=a9b3bd
x12y111=aab4be
x13y111=a6b3bb
x14y111=a4b1b9
x15y111=a7b4bc
x16y111=a5b2ba
x17y111=acb6bf
x18y111=aab4bd
x19y111=a9b3bc
x20y111=aeb8c1
x21y111=aeb8c1
x22y111=adb7c0
x23y111=a9b3bc
x24y111=a7b1ba
x25y111=a5afb8
x26y111=a6b0b9
x27y111=a7b1ba
x28y111=abb5be
x29y111=b6c3cc
x30y111=b1bec7
x31y111=abb8c1
x32y111=aebbc4
x33y111=b0bec7
x34y111=b4c1ca
x35y111=aebac6
x36y111=b1bec7
x37y111=b0bdc6
x38y111=aebbc3
x39y111=b7c4cd
x40y111=b8c4d0
x41y111=bbc9d6
x42y111=b8c6d3
x43y111=b5c3d0
x44y111=b6c2ce
x45y111=b6c3cc
x46y111=bfccd5
x47y111=bbc7d3
x48y111=b2bfc8
x49y111=b3bdc6
x50y111=acb7bd
x51y111=aeb7bc
x52y111=abb5b7
x53y111=91999c
x54y111=868d93
x55y111=889196
x56y111=8f999b
x57y111=949e9f
x58y111=9aa2a4
x59y111=a0a6a6
x60y111=949897
x61y111=6c6c6a
x62y111=3d3c37
x63y111=312d24
x64y111=2f281e
x65y111=362e23
x66y111=3a3026
x67y111=372d23
x68y111=342a20
x69y111=362c20
x70y111=352b1f
x71y111=342a1e
x72y111=362c20
x73y111=382e22
x74y111=382f20
x75y111=3f3325
x76y111=403426
x77y111=46382b
x78y111=483b2b
x79y111=453526
x80y111=413121
x81y111=433323
x82y111=423222
x83y111=473626
x84y111=4b3a2a
x85y111=473626
x86y111=433222
x87y111=443323
x88y111=413121
x89y111=3f2f20
x90y111=392c1c
x91y111=3b2d20
x92y111=392d1f
x93y111=392f23
x94y111=332d1f
x95y111=2c281c
x96y111=29271b
x97y111=2a271e
x98y111=25221b
x99y111=1c1d17
x100y111=161912
x101y111=12140f
x102y111=12140f
x103y111=100f0b
x104y111=1b1813
x105y111=231c12
x106y111=33291d
x107y111=4f4134
x108y111=4b3d32
x109y111=41372e
x110y111=261f19
x111y111=1a150f
x112y111=17140d
x113y111=18150c
x114y111=1b180f
x115y111=1d1a13
x116y111=221b13
x117y111=2f251c
x118y111=35281f
x119y111=473930
x120y111=4d3f32
x121y111=3e2e1f
x122y111=4d3921
x123y111=b79d78
x124y111=c8ab7f
x125y111=ceb185
x126y111=e2caa4
x127y111=f8eacf
x128y111=fffae8
x129y111=fffef5
x130y111=fffffa
x131y111=fffff6
x132y111=fffef2
x133y111=fffbee
x134y111=f2e9da
x135y111=aca394
x136y111=443a2e
x137y111=302921
x138y111=2a251f
x139y111=25221d
x140y111=23221d
x141y111=262520
x142y111=2c2922
x143y111=39322c
x144y111=3c3431
x145y111=3c3733
x146y111=2a2722
x147y111=23241e
x148y111=23261d
x149y111=262721
x150y111=2b2c26
x151y111=312e29
x152y111=312e29
x153y111=322f28
x154y111=28251e
x155y111=333029
x156y111=3c352d
x157y111=382b22
x158y111=4f3e2e
x159y111=b6a287
x160y111=d5c1a0
x161y111=d5c1a0
x162y111=d8c4a3
x163y111=dcc5a5
x164y111=dfc8a8
x165y111=e3ccac
x166y111=e4cdad
x167y111=e7ceaf
x168y111=e8cfb0
x169y111=ebd2b3
x170y111=eed5b6
x171y111=efd6b7
x172y111=efd6b7
x173y111=f1d8b9
x174y111=f2d9ba
x175y111=f2d9ba
x176y111=f5dcbd
x1y112=b3c0c9
x2y112=aebbc4
x3y112=a7b4bd
x4y112=a4b1ba
x5y112=9daab3
x6y112=a0adb6
x7y112=a3adb7
x8y112=a6b0ba
x9y112=a6b0ba
x10y112=aab4bd
x11y112=aab4be
x12y112=acb6bf
x13y112=aab7bf
x14y112=a9b6be
x15y112=a9b6be
x16y112=aeb8c1
x17y112=b5bfc8
x18y112=b0b9c0
x19y112=acb5be
x20y112=aab5bb
x21y112=aab4bd
x22y112=abb5be
x23y112=aab4bd
x24y112=a7b1ba
x25y112=a9b3bc
x26y112=b0bac3
x27y112=adb7c0
x28y112=afb9c2
x29y112=aebbc4
x30y112=acb9c2
x31y112=aab7c0
x32y112=abb8c1
x33y112=b2bfc8
x34y112=b4c1ca
x35y112=aeb8c2
x36y112=b2bcc6
x37y112=afbcc5
x38y112=aebbc3
x39y112=b3c0c9
x40y112=b8c5ce
x41y112=b8c6d1
x42y112=bbc9d6
x43y112=b1bfcc
x44y112=b4c0cc
x45y112=bbc7d3
x46y112=c0cdd6
x47y112=bac8d3
x48y112=b6c4cf
x49y112=b6c3cc
x50y112=b7c2c8
x51y112=b3bcc1
x52y112=b2bcbe
x53y112=a2abb0
x54y112=8b9499
x55y112=89949a
x56y112=8b969c
x57y112=929da1
x58y112=96a1a5
x59y112=9ca6a8
x60y112=a4a9ac
x61y112=a9adae
x62y112=aaacab
x63y112=9a9995
x64y112=68655e
x65y112=39322a
x66y112=31281f
x67y112=342b22
x68y112=362e23
x69y112=372d21
x70y112=3b3125
x71y112=362c20
x72y112=392f23
x73y112=382e22
x74y112=372d21
x75y112=403426
x76y112=45392b
x77y112=423427
x78y112=443629
x79y112=463627
x80y112=443425
x81y112=3f2f20
x82y112=3d2d1d
x83y112=3f2f1f
x84y112=3e2d1d
x85y112=423121
x86y112=433323
x87y112=3f2f1f
x88y112=3d3020
x89y112=3c2f1f
x90y112=362a1c
x91y112=382c1e
x92y112=342b1c
x93y112=30281b
x94y112=2f291b
x95y112=2b271c
x96y112=28251c
x97y112=1f1f17
x98y112=1b1a15
x99y112=10110c
x100y112=0e100b
x101y112=121411
x102y112=141613
x103y112=151412
x104y112=1c1914
x105y112=2c251b
x106y112=372d21
x107y112=3d2f22
x108y112=392b20
x109y112=2f251c
x110y112=281f1a
x111y112=1b1610
x112y112=201d16
x113y112=1e1b14
x114y112=19160d
x115y112=1c1711
x116y112=261f17
x117y112=2c211b
x118y112=2d231a
x119y112=251b12
x120y112=261a0e
x121y112=41301e
x122y112=887358
x123y112=c9ad86
x124y112=cfb286
x125y112=d5bc94
x126y112=efdcbc
x127y112=fff7e4
x128y112=fffff6
x129y112=fffffb
x130y112=fdfffc
x131y112=fffffa
x132y112=fffff6
x133y112=fffdef
x134y112=fbf4e2
x135y112=ebe0ce
x136y112=958878
x137y112=43372b
x138y112=342b22
x139y112=2a251f
x140y112=282520
x141y112=292823
x142y112=322f2a
x143y112=3c352f
x144y112=3b322d
x145y112=3b342e
x146y112=5a554f
x147y112=27271f
x148y112=25261e
x149y112=282b24
x150y112=262721
x151y112=2d2c27
x152y112=2b2821
x153y112=2d2a23
x154y112=292921
x155y112=2e2b24
x156y112=3b342c
x157y112=40332a
x158y112=4e3d2d
x159y112=b19c81
x160y112=d2bb9b
x161y112=dac3a3
x162y112=ddc6a6
x163y112=e0c9a9
x164y112=e1caaa
x165y112=e4cdad
x166y112=e6cfaf
x167y112=e8cfb0
x168y112=e9d0b1
x169y112=ecd3b4
x170y112=edd4b5
x171y112=efd6b7
x172y112=f0d7b8
x173y112=f4dbbc
x174y112=f4dbbc
x175y112=f2d9ba
x176y112=f5dcbd
x1y113=abb8c1
x2y113=a6b3bc
x3y113=a2acb6
x4y113=9fa9b3
x5y113=9fa9b2
x6y113=a6b0b9
x7y113=a6b0b9
x8y113=a7b1ba
x9y113=a6b0b9
x10y113=a9b4ba
x11y113=a9b3bc
x12y113=aeb9bf
x13y113=abb6bc
x14y113=b0bbc1
x15y113=b1bcc2
x16y113=b5c0c6
x17y113=b5bcc4
x18y113=b4bbc1
x19y113=b4bbc3
x20y113=b1babf
x21y113=b1bac1
x22y113=b2bbc2
x23y113=b3bcc3
x24y113=b1bac1
x25y113=acb7bd
x26y113=afbac0
x27y113=adb8be
x28y113=afbac0
x29y113=acb9c1
x30y113=a8b5bd
x31y113=aab7bf
x32y113=acb9c1
x33y113=b3bdc6
x34y113=b1bbc4
x35y113=b2bcc5
x36y113=b1bbc5
x37y113=b0bac4
x38y113=b5bfc9
x39y113=b4c1ca
x40y113=b4c1ca
x41y113=b8c5ce
x42y113=b3bfcb
x43y113=b5c1cd
x44y113=bdc9d5
x45y113=bac6d2
x46y113=b3c1cc
x47y113=b8c6d3
x48y113=b5c5d2
x49y113=b7c5d0
x50y113=b8c5ce
x51y113=b6bfc6
x52y113=b0b7bd
x53y113=a8b0b3
x54y113=97a1a3
x55y113=869195
x56y113=8c979b
x57y113=909b9f
x58y113=949fa3
x59y113=97a1a3
x60y113=a2aaad
x61y113=a9aeb1
x62y113=aaafb2
x63y113=abadac
x64y113=b1b1af
x65y113=a9a8a4
x66y113=76736e
x67y113=37342d
x68y113=2d291e
x69y113=352b21
x70y113=392d21
x71y113=3a3122
x72y113=393021
x73y113=362e23
x74y113=342c21
x75y113=34281c
x76y113=382a1d
x77y113=413124
x78y113=413124
x79y113=433125
x80y113=3c2c1f
x81y113=382a1d
x82y113=372a1a
x83y113=3c2c1d
x84y113=3d2d1e
x85y113=39291a
x86y113=372a1a
x87y113=392c1c
x88y113=3a2e20
x89y113=362a1c
x90y113=362a1e
x91y113=372b1f
x92y113=33291d
x93y113=31291c
x94y113=322c1e
x95y113=302c21
x96y113=25251b
x97y113=1a1b15
x98y113=151611
x99y113=10110c
x100y113=13140e
x101y113=161712
x102y113=151410
x103y113=181713
x104y113=1e1b16
x105y113=251e18
x106y113=282119
x107y113=292017
x108y113=282119
x109y113=231e18
x110y113=18150e
x111y113=17140d
x112y113=25221b
x113y113=232019
x114y113=1f1c15
x115y113=211a14
x116y113=292019
x117y113=261d16
x118y113=292017
x119y113=2a2016
x120y113=392c1c
x121y113=746047
x122y113=baa280
x123y113=cfb489
x124y113=cfb68d
x125y113=dcc9a9
x126y113=fef2dc
x127y113=fffff4
x128y113=fffffb
x129y113=fefffd
x130y113=fefffd
x131y113=fffffb
x132y113=fffff6
x133y113=fffff1
x134y113=fff9e7
x135y113=fcf1db
x136y113=e3d4bf
x137y113=8e7e6e
x138y113=504235
x139y113=362d24
x140y113=302b25
x141y113=312e29
x142y113=3f3c35
x143y113=423b33
x144y113=322922
x145y113=221b15
x146y113=56514d
x147y113=332e28
x148y113=25251d
x149y113=262721
x150y113=242720
x151y113=23241e
x152y113=27271f
x153y113=2a271e
x154y113=2d2a21
x155y113=2f2a24
x156y113=332c26
x157y113=45382f
x158y113=544333
x159y113=b49f82
x160y113=d8c19f
x161y113=dbc4a4
x162y113=e0c9a9
x163y113=e2cbab
x164y113=e4cdad
x165y113=e7d0b1
x166y113=e7d0b1
x167y113=ead3b4
x168y113=e9d2b3
x169y113=ebd4b4
x170y113=edd6b6
x171y113=eed5b7
x172y113=f0d7b9
x173y113=f2d9bb
x174y113=f2d9bb
x175y113=f4d9bc
x176y113=f7dcbf
x1y114=aebbc4
x2y114=a7b4bd
x3y114=a0aab4
x4y114=9ba5af
x5y114=9ea8b2
x6y114=a2acb5
x7y114=a4aeb8
x8y114=a4aeb7
x9y114=a8b2bb
x10y114=a9b4ba
x11y114=adb7c0
x12y114=b4bfc5
x13y114=b4bec7
x14y114=b5c0c6
x15y114=b8c2cb
x16y114=bac5cb
x17y114=b5bec5
x18y114=b1b8c0
x19y114=aeb7be
x20y114=aeb7bc
x21y114=a9b2b9
x22y114=afb8bf
x23y114=b5bec5
x24y114=b4bdc4
x25y114=acb7bd
x26y114=adb8be
x27y114=a7b2b8
x28y114=abb6bc
x29y114=afb9c2
x30y114=a7b4bc
x31y114=afbcc4
x32y114=aeb8c1
x33y114=afbac0
x34y114=b4bdc4
x35y114=b2bcc5
x36y114=adb7c0
x37y114=b1bbc5
x38y114=b5bfc9
x39y114=adbac3
x40y114=b0bdc6
x41y114=b4c1ca
x42y114=b3c0c9
x43y114=b9c5d1
x44y114=bac6d2
x45y114=b2c0cb
x46y114=b7c5d0
x47y114=b4c4d1
x48y114=b5c5d2
x49y114=b6c6d3
x50y114=b9c7d2
x51y114=b4bec7
x52y114=b7c0c5
x53y114=b4bbc1
x54y114=aab3b8
x55y114=919a9f
x56y114=889397
x57y114=879296
x58y114=8f9a9e
x59y114=919b9d
x60y114=96a0a2
x61y114=9fa7aa
x62y114=a4a9ac
x63y114=a4a8a9
x64y114=abacae
x65y114=adadad
x66y114=b6b6b4
x67y114=adaea9
x68y114=7d7c77
x69y114=39322a
x70y114=2f271c
x71y114=2f271a
x72y114=31291c
x73y114=372f24
x74y114=372f24
x75y114=3b2f23
x76y114=34281a
x77y114=35271a
x78y114=392b1e
x79y114=3e2e21
x80y114=3f2f22
x81y114=3e3023
x82y114=34281a
x83y114=3a2c1f
x84y114=3b2e1e
x85y114=3a2c1f
x86y114=362a1c
x87y114=362a1c
x88y114=33291d
x89y114=342a1e
x90y114=32281e
x91y114=332b20
x92y114=30281d
x93y114=312b1f
x94y114=2e2a1f
x95y114=302e22
x96y114=282820
x97y114=1f201b
x98y114=181914
x99y114=191813
x100y114=181712
x101y114=161510
x102y114=161510
x103y114=1c1815
x104y114=1c1713
x105y114=2d2822
x106y114=35302a
x107y114=2e2923
x108y114=1f1c15
x109y114=16130e
x110y114=0f0f07
x111y114=15120b
x112y114=18150c
x113y114=1a170e
x114y114=19160d
x115y114=251e18
x116y114=2d241d
x117y114=292017
x118y114=292116
x119y114=32281c
x120y114=554633
x121y114=a99175
x122y114=c9af8c
x123y114=d4bb93
x124y114=d3bf9a
x125y114=f0e4cc
x126y114=fffbed
x127y114=fefdf8
x128y114=feffff
x129y114=feffff
x130y114=fffffd
x131y114=fffffb
x132y114=fffff6
x133y114=fffff0
x134y114=fffbe7
x135y114=fff9e0
x136y114=f7e7ce
x137y114=dbc9b3
x138y114=a18f7b
x139y114=645649
x140y114=4a4036
x141y114=433c32
x142y114=4a433b
x143y114=423930
x144y114=2d231a
x145y114=241b14
x146y114=322b25
x147y114=322d27
x148y114=27241f
x149y114=20211c
x150y114=21221d
x151y114=1d1e19
x152y114=21201b
x153y114=27241b
x154y114=28251c
x155y114=312c26
x156y114=342b24
x157y114=3f3126
x158y114=6b5945
x159y114=c0ab8c
x160y114=d7bf9b
x161y114=ddc5a3
x162y114=e2caa8
x163y114=e2cba9
x164y114=e5ceae
x165y114=e7d0b0
x166y114=e7d0b0
x167y114=e9d2b2
x168y114=e8d1b1
x169y114=ebd4b4
x170y114=edd6b6
x171y114=edd4b5
x172y114=efd6b7
x173y114=f0d7b9
x174y114=f0d7b9
x175y114=f2d7ba
x176y114=f3d8bb
x1y115=b5c1cd
x2y115=acb8c4
x3y115=a2aeba
x4y115=a0acb8
x5y115=a8b4c0
x6y115=adbac3
x7y115=b3bfcb
x8y115=b3c0c9
x9y115=b5c2cb
x10y115=b3c0c8
x11y115=b3c0c9
x12y115=b8c5cd
x13y115=bac7d0
x14y115=b7c4cc
x15y115=b7c4cd
x16y115=b2bfc7
x17y115=acb6bf
x18y115=acb6bf
x19y115=abb5be
x20y115=afbac0
x21y115=aeb8c1
x22y115=b0bac3
x23y115=b3bdc6
x24y115=b5bfc8
x25y115=b4bdc6
x26y115=b1bac3
x27y115=aeb7c0
x28y115=abb4bd
x29y115=aeb7c0
x30y115=a4aeb7
x31y115=aab4bd
x32y115=b1bbc4
x33y115=aeb8c1
x34y115=afb9c2
x35y115=afb9c2
x36y115=afb9c2
x37y115=acb9c2
x38y115=afbcc5
x39y115=aab7c0
x40y115=b1bec7
x41y115=afbcc5
x42y115=b4c1ca
x43y115=b5c2cb
x44y115=b8c5ce
x45y115=b6c4cf
x46y115=b6c4cf
x47y115=b7c5d0
x48y115=b8c6d1
x49y115=b9c7d2
x50y115=bac8d3
x51y115=bac7d0
x52y115=bcc6cf
x53y115=b2bbc2
x54y115=adb6bb
x55y115=9ea7ac
x56y115=889294
x57y115=828d91
x58y115=899498
x59y115=90999e
x60y115=97a1a3
x61y115=99a1a4
x62y115=a5aaad
x63y115=a6aaab
x64y115=a6aaab
x65y115=acadaf
x66y115=adaeb0
x67y115=b1b2b4
x68y115=b7b9b8
x69y115=afafad
x70y115=75726d
x71y115=393228
x72y115=322a1f
x73y115=352b21
x74y115=362c22
x75y115=372d23
x76y115=3a3024
x77y115=3d3123
x78y115=3a2e20
x79y115=392c1c
x80y115=3c2e21
x81y115=3b2f21
x82y115=3b2f23
x83y115=342a1e
x84y115=342b1c
x85y115=32281c
x86y115=342a1e
x87y115=352b1f
x88y115=332b1e
x89y115=2e281c
x90y115=2f281e
x91y115=2e2a21
x92y115=2d2920
x93y115=28251e
x94y115=23231b
x95y115=27271f
x96y115=292823
x97y115=20211b
x98y115=181913
x99y115=171611
x100y115=17170f
x101y115=19160f
x102y115=1a1710
x103y115=1a1511
x104y115=19140e
x105y115=1a150f
x106y115=1b1811
x107y115=19160f
x108y115=19160f
x109y115=1a1710
x110y115=19160f
x111y115=1c180f
x112y115=1b170c
x113y115=1d190e
x114y115=1d190e
x115y115=272018
x116y115=292019
x117y115=292114
x118y115=312817
x119y115=594c3b
x120y115=a2907a
x121y115=c5ae8f
x122y115=d1b997
x123y115=d5c1a0
x124y115=f0e2c7
x125y115=fffaec
x126y115=fffff8
x127y115=fffffb
x128y115=ffffff
x129y115=fefefe
x130y115=ffffff
x131y115=fffffa
x132y115=fffff6
x133y115=fffff0
x134y115=fffee9
x135y115=fffae1
x136y115=fdedd3
x137y115=f3dec3
x138y115=d9c4a9
x139y115=b09c84
x140y115=7d6b57
x141y115=5a4d3d
x142y115=53473b
x143y115=46382f
x144y115=34271e
x145y115=2c2219
x146y115=31281f
x147y115=322d27
x148y115=25221d
x149y115=21221d
x150y115=20211c
x151y115=221e1b
x152y115=24211c
x153y115=28231f
x154y115=2f2a24
x155y115=2f2820
x156y115=352b21
x157y115=433323
x158y115=87735b
x159y115=ccb596
x160y115=d8c09c
x161y115=dbc39f
x162y115=dfc9a4
x163y115=e1cba6
x164y115=e5ceac
x165y115=e6cfad
x166y115=e7d0ae
x167y115=e9d2b0
x168y115=ead3b1
x169y115=ecd5b3
x170y115=edd6b4
x171y115=edd6b4
x172y115=edd6b4
x173y115=efd6b7
x174y115=f0d7b8
x175y115=f2d9ba
x176y115=f2d9ba
x1y116=aebac6
x2y116=a9b5c1
x3y116=a9b5c1
x4y116=afbbc7
x5y116=b5c1cd
x6y116=b8c4d0
x7y116=bdc9d5
x8y116=bac6d2
x9y116=bbc8d1
x10y116=bdcad3
x11y116=bbc8d1
x12y116=b7c4cd
x13y116=b8c5ce
x14y116=bac7d0
x15y116=bbc8d1
x16y116=b3c0c9
x17y116=b2bfc8
x18y116=b7c5ce
x19y116=b8c5ce
x20y116=b5c4cb
x21y116=bac7cf
x22y116=b9c6ce
x23y116=bcc9d1
x24y116=c0cad3
x25y116=c0cad3
x26y116=bac3cc
x27y116=b4bdc6
x28y116=b1bac3
x29y116=afb8c1
x30y116=a5aeb7
x31y116=aeb8c1
x32y116=b2bcc5
x33y116=b0bac3
x34y116=b0bac3
x35y116=adb7c0
x36y116=b0bac3
x37y116=aebbc4
x38y116=b2bfc8
x39y116=aab7c0
x40y116=acb9c2
x41y116=afbcc5
x42y116=b3c0c9
x43y116=b0bdc6
x44y116=b8c5ce
x45y116=b9c7d2
x46y116=b3c1cc
x47y116=b8c6d1
x48y116=b8c6d1
x49y116=bccad5
x50y116=b6c4cf
x51y116=b6c4cd
x52y116=b9c7d0
x53y116=bcc6cf
x54y116=b6bfc6
x55y116=a8b1b6
x56y116=959fa1
x57y116=858e93
x58y116=8a9599
x59y116=8d969b
x60y116=949da2
x61y116=9ba0a4
x62y116=a0a5a8
x63y116=a5a9ac
x64y116=a4a8a9
x65y116=adb1b2
x66y116=abafb2
x67y116=acb0b3
x68y116=b3b7ba
x69y116=bcc0c3
x70y116=c0c4c5
x71y116=acacaa
x72y116=605f5a
x73y116=352e28
x74y116=322920
x75y116=342b22
x76y116=352d22
x77y116=372d21
x78y116=362d1e
x79y116=382f20
x80y116=342b1c
x81y116=362a1e
x82y116=33291d
x83y116=2f271a
x84y116=2b2318
x85y116=2b2519
x86y116=2c261a
x87y116=282117
x88y116=29251a
x89y116=232017
x90y116=1f1c15
x91y116=16160e
x92y116=161510
x93y116=15140f
x94y116=14150f
x95y116=14130f
x96y116=15140f
x97y116=1f201b
x98y116=2d2c27
x99y116=383830
x100y116=403d34
x101y116=423e33
x102y116=372f24
x103y116=362c20
x104y116=332a1b
x105y116=2e2516
x106y116=2b2213
x107y116=271e0f
x108y116=2c2314
x109y116=2c2216
x110y116=30281b
x111y116=2c2417
x112y116=2f271a
x113y116=2c2417
x114y116=2e261b
x115y116=281f18
x116y116=2e271f
x117y116=423a2d
x118y116=534a3b
x119y116=6c6050
x120y116=887964
x121y116=b09c83
x122y116=d7c2a7
x123y116=f5e5cc
x124y116=fff8e5
x125y116=fffcf3
x126y116=fefffd
x127y116=fffffd
x128y116=fffdfe
x129y116=fffeff
x130y116=fffffd
x131y116=fffff8
x132y116=fffff2
x133y116=ffffed
x134y116=fffce6
x135y116=fff6db
x136y116=fdeed1
x137y116=f9e4c5
x138y116=eed5b7
x139y116=dac2a6
x140y116=baa58a
x141y116=9f8d77
x142y116=84735f
x143y116=7f6e5e
x144y116=514132
x145y116=3b2d22
x146y116=332a21
x147y116=362f27
x148y116=2c2924
x149y116=1f1e1a
x150y116=21201c
x151y116=241f1b
x152y116=2b241e
x153y116=302923
x154y116=302921
x155y116=352d22
x156y116=3c3020
x157y116=6d5b45
x158y116=b09b80
x159y116=cdb495
x160y116=d1b995
x161y116=d5bd99
x162y116=dbc59e
x163y116=e0caa5
x164y116=e5cfaa
x165y116=e7d1ac
x166y116=e7d1ac
x167y116=ead3b1
x168y116=edd6b4
x169y116=eed7b5
x170y116=eed7b5
x171y116=f0d9b7
x172y116=f0d9b7
x173y116=f1d9b7
x174y116=f2dab8
x175y116=f5dcbd
x176y116=f6ddbe
x1y117=c2d0db
x2y117=bac8d3
x3y117=b9c7d2
x4y117=bfcdd8
x5y117=c6d4df
x6y117=c8d6e1
x7y117=c7d5e0
x8y117=c5d3de
x9y117=c7d5e0
x10y117=c4d2dd
x11y117=bfcdd8
x12y117=bdcbd6
x13y117=c2d0db
x14y117=c6d4df
x15y117=cbd9e4
x16y117=cedce7
x17y117=d2e0eb
x18y117=d3e4ec
x19y117=d7e5ee
x20y117=d1e2ea
x21y117=d2e0e9
x22y117=d1dfe8
x23y117=cedde4
x24y117=c3d0d8
x25y117=c2cfd5
x26y117=c2cdd3
x27y117=bbc6cc
x28y117=b4bfc5
x29y117=b6c1c7
x30y117=afbac0
x31y117=aeb9bf
x32y117=afbac0
x33y117=b0bdc5
x34y117=acb9c1
x35y117=aebbc3
x36y117=aebbc3
x37y117=adbac3
x38y117=aab7c0
x39y117=b0bdc6
x40y117=b1bec7
x41y117=b1bec7
x42y117=b2bfc8
x43y117=b4c1ca
x44y117=b9c6cf
x45y117=b4c2cd
x46y117=b8c6d1
x47y117=bac8d3
x48y117=b4c2cd
x49y117=b8c6d1
x50y117=b9c7d2
x51y117=bbccd6
x52y117=c2d0d9
x53y117=beccd5
x54y117=b5c2ca
x55y117=a8b1b6
x56y117=9ea7ac
x57y117=919b9d
x58y117=879193
x59y117=8c959a
x60y117=8c959a
x61y117=979ca0
x62y117=9ba0a3
x63y117=9fa4a7
x64y117=a2a6a9
x65y117=a5a9ac
x66y117=a4a5a9
x67y117=a8a9ad
x68y117=adb2b6
x69y117=bbc4cb
x70y117=bcc6cf
x71y117=c0cad3
x72y117=bcc5cc
x73y117=8b8f90
x74y117=3c3b36
x75y117=2c251d
x76y117=332b20
x77y117=32281e
x78y117=32281c
x79y117=332b1e
x80y117=2f271a
x81y117=33291d
x82y117=31271b
x83y117=271f14
x84y117=1f1b10
x85y117=17140b
x86y117=12120a
x87y117=14130e
x88y117=13140e
x89y117=11120d
x90y117=10110c
x91y117=11120d
x92y117=11120d
x93y117=161511
x94y117=12110d
x95y117=131311
x96y117=12130e
x97y117=12110f
x98y117=14130e
x99y117=45423b
x100y117=7f796d
x101y117=9d9280
x102y117=b1a28b
x103y117=b6a287
x104y117=baa384
x105y117=b7a080
x106y117=ac9575
x107y117=957e5f
x108y117=674f33
x109y117=4b351d
x110y117=412c17
x111y117=3f2e1c
x112y117=372717
x113y117=3e2e1f
x114y117=403225
x115y117=463c33
x116y117=564f47
x117y117=575046
x118y117=433c32
x119y117=3a3428
x120y117=4d453a
x121y117=5b4d42
x122y117=705f55
x123y117=e0d2c5
x124y117=fffbf0
x125y117=fffffa
x126y117=ffffff
x127y117=fffdfe
x128y117=fffeff
x129y117=ffffff
x130y117=fffffb
x131y117=fffff6
x132y117=ffffee
x133y117=fffce8
x134y117=fef7dd
x135y117=fff1d7
x136y117=ffefd5
x137y117=fee6ca
x138y117=fae1c3
x139y117=ead1b3
x140y117=d8c1a2
x141y117=c5b093
x142y117=b7a285
x143y117=ac977a
x144y117=937f67
x145y117=564637
x146y117=3d332a
x147y117=3f362f
x148y117=403b37
x149y117=292522
x150y117=282520
x151y117=2d261e
x152y117=332a21
x153y117=392f25
x154y117=382c20
x155y117=443727
x156y117=72614d
x157y117=a79476
x158y117=c3ac8a
x159y117=cab28e
x160y117=cfb793
x161y117=d2ba96
x162y117=dac29e
x163y117=e2caa8
x164y117=e7cfad
x165y117=e9d1af
x166y117=e9d1af
x167y117=ebd3b1
x168y117=efd7b5
x169y117=efd7b5
x170y117=efd7b5
x171y117=f2dab8
x172y117=f4dcba
x173y117=f4dcba
x174y117=f5ddbb
x175y117=f6debc
x176y117=f6debc
x1y118=d4e1ea
x2y118=d2e0e9
x3y118=d4e1ea
x4y118=d4e2eb
x5y118=d6e4ed
x6y118=d5e3ee
x7y118=d5e3ee
x8y118=d6e4ef
x9y118=d1dfea
x10y118=d3e1ec
x11y118=d1dfea
x12y118=d2e0eb
x13y118=d7e5f0
x14y118=dceaf3
x15y118=dfedf8
x16y118=deecf5
x17y118=dae8f3
x18y118=d7e5ee
x19y118=d4e2eb
x20y118=d2e0e9
x21y118=c7d5de
x22y118=c4d3da
x23y118=bcc9d1
x24y118=afbcc2
x25y118=aeb9bf
x26y118=aab5bb
x27y118=aeb9bf
x28y118=abb6bc
x29y118=abb6bc
x30y118=adb8be
x31y118=abb6bc
x32y118=adb8be
x33y118=abb5be
x34y118=b2bfc7
x35y118=aebbc3
x36y118=b0bdc5
x37y118=afbcc5
x38y118=b1bec7
x39y118=afbcc5
x40y118=afbcc5
x41y118=b1bec7
x42y118=abb8c1
x43y118=b0bdc6
x44y118=b7c4cd
x45y118=b8c6d1
x46y118=b6c4cf
x47y118=b3c1cc
x48y118=b2c0cb
x49y118=b5c3ce
x50y118=bac8d3
x51y118=bfd0da
x52y118=becfd9
x53y118=bdcbd6
x54y118=b7c5ce
x55y118=aeb9bf
x56y118=a2abb0
x57y118=9ca6a8
x58y118=899395
x59y118=8a9398
x60y118=8d949a
x61y118=91989e
x62y118=9a9fa3
x63y118=9ca1a4
x64y118=a0a5a8
x65y118=a1a5a8
x66y118=a6a7ab
x67y118=a7a8ac
x68y118=acb1b5
x69y118=b3bdc6
x70y118=bac8d3
x71y118=bbcddb
x72y118=becedb
x73y118=bfc9d2
x74y118=b2b7ba
x75y118=5c5c5a
x76y118=2b2620
x77y118=2b241a
x78y118=30281d
x79y118=2e271d
x80y118=2e271d
x81y118=2d271b
x82y118=2f281e
x83y118=2b271c
x84y118=29261d
x85y118=1b1c16
x86y118=161813
x87y118=0f110c
x88y118=111310
x89y118=111310
x90y118=111310
x91y118=111310
x92y118=111310
x93y118=131311
x94y118=121210
x95y118=131311
x96y118=131311
x97y118=131311
x98y118=171612
x99y118=16130c
x100y118=1c180d
x101y118=3e3524
x102y118=a1927b
x103y118=c0ac91
x104y118=cbb697
x105y118=c8b493
x106y118=bea787
x107y118=ae9778
x108y118=a89376
x109y118=9d876f
x110y118=89745f
x111y118=746351
x112y118=685848
x113y118=736656
x114y118=65594d
x115y118=473e35
x116y118=332f26
x117y118=29261f
x118y118=26231c
x119y118=23231b
x120y118=28251e
x121y118=2c2220
x122y118=372c28
x123y118=82786f
x124y118=ece3da
x125y118=fffffa
x126y118=fffffd
x127y118=fffcfb
x128y118=fffefb
x129y118=fffffb
x130y118=fffff5
x131y118=fffff0
x132y118=fffeea
x133y118=fff9e2
x134y118=fff4da
x135y118=ffefd6
x136y118=ffecd3
x137y118=ffe7cb
x138y118=fae1c3
x139y118=f4dbbd
x140y118=e6cdaf
x141y118=dcc5a6
x142y118=d2bb9b
x143y118=c9b091
x144y118=b6a184
x145y118=95836f
x146y118=6a5a4b
x147y118=57493c
x148y118=60534a
x149y118=4f453c
x150y118=3d3329
x151y118=4f4337
x152y118=6b5e4e
x153y118=837363
x154y118=766553
x155y118=907e68
x156y118=aa967d
x157y118=baa383
x158y118=bfa982
x159y118=c9b18b
x160y118=d1b993
x161y118=d5bd99
x162y118=dbc39f
x163y118=e3cba9
x164y118=e6ceac
x165y118=e9d1af
x166y118=e9d1af
x167y118=edd5b3
x168y118=f0d8b6
x169y118=f2dab8
x170y118=f1d9b7
x171y118=f3dbb9
x172y118=f5ddbb
x173y118=f6debc
x174y118=f6debc
x175y118=f6ddbe
x176y118=f6debc
x1y119=c9d3dc
x2y119=c8d5dd
x3y119=cbd5de
x4y119=cad7df
x5y119=cbd8e0
x6y119=cbd8e1
x7y119=cfdce5
x8y119=ccd9e2
x9y119=d0dde6
x10y119=d2dfe8
x11y119=cddae3
x12y119=ccd9e2
x13y119=c7d4dd
x14y119=c2cfd7
x15y119=c4d1da
x16y119=bfccd4
x17y119=b9c6cf
x18y119=acb9c1
x19y119=a1aeb6
x20y119=a2afb7
x21y119=a4aeb7
x22y119=a9b4ba
x23y119=a2abb2
x24y119=9ea7ac
x25y119=a0a9ae
x26y119=a0a9ae
x27y119=9da6ab
x28y119=a0a9ae
x29y119=a5aeb3
x30y119=a6afb4
x31y119=a9b2b7
x32y119=aeb9bd
x33y119=aeb9bf
x34y119=b0bbc1
x35y119=b1bbc4
x36y119=aeb8c1
x37y119=b1bec6
x38y119=adbac2
x39y119=b0bdc6
x40y119=afbcc5
x41y119=afbcc5
x42y119=b0bdc6
x43y119=b2bfc8
x44y119=b3c0c9
x45y119=bccad5
x46y119=b7c5d0
x47y119=b3c3d0
x48y119=b1c1ce
x49y119=b9c9d6
x50y119=bacad7
x51y119=bacbd5
x52y119=bacbd5
x53y119=bfd0da
x54y119=bbc9d4
x55y119=b2bfc8
x56y119=acb7bd
x57y119=9fa9ab
x58y119=9aa2a4
x59y119=889093
x60y119=8e959b
x61y119=91989e
x62y119=92999f
x63y119=989da1
x64y119=9da2a5
x65y119=9ea4a4
x66y119=a0a4a5
x67y119=a7abac
x68y119=a7acb0
x69y119=aeb8c1
x70y119=b4c2cd
x71y119=bacbdb
x72y119=bdd0df
x73y119=c0d2e0
x74y119=c2d0dd
x75y119=bbc4cd
x76y119=73777a
x77y119=27241f
x78y119=221e13
x79y119=232017
x80y119=26231c
x81y119=26231c
x82y119=28251e
x83y119=25251d
x84y119=282923
x85y119=24251f
x86y119=181914
x87y119=12140f
x88y119=10120f
x89y119=111310
x90y119=131514
x91y119=121413
x92y119=141615
x93y119=121413
x94y119=131512
x95y119=131311
x96y119=131311
x97y119=121210
x98y119=121210
x99y119=141412
x100y119=13120d
x101y119=19160d
x102y119=201a0e
x103y119=31291c
x104y119=3f3828
x105y119=30281b
x106y119=282013
x107y119=261e11
x108y119=2f271a
x109y119=31271b
x110y119=473d31
x111y119=5e564b
x112y119=61594e
x113y119=4a4438
x114y119=2e2a1f
x115y119=27241b
x116y119=2a2a22
x117y119=22231d
x118y119=1d1e19
x119y119=1f201a
x120y119=302f2a
x121y119=403835
x122y119=483f3a
x123y119=493c33
x124y119=83796f
x125y119=faf3eb
x126y119=fffef7
x127y119=fffff8
x128y119=fffff6
x129y119=fffff3
x130y119=ffffec
x131y119=fffde7
x132y119=fff9df
x133y119=fff4da
x134y119=fff3d6
x135y119=fff0d4
x136y119=ffebce
x137y119=fee6ca
x138y119=fce3c5
x139y119=f5ddc1
x140y119=f1d9bd
x141y119=ebd3b7
x142y119=dfc7ab
x143y119=d5be9e
x144y119=cbb495
x145y119=bba88a
x146y119=af9b80
x147y119=a58f77
x148y119=98826b
x149y119=917a68
x150y119=927d6a
x151y119=9d8772
x152y119=9f8972
x153y119=a18b73
x154y119=a79277
x155y119=ae967c
x156y119=b9a283
x157y119=c0a886
x158y119=c4ac86
x159y119=cdb58f
x160y119=d5bd97
x161y119=d8c09c
x162y119=ddc5a1
x163y119=e2caa6
x164y119=e4cca8
x165y119=e8d0ae
x166y119=ebd3b1
x167y119=efd6b7
x168y119=f2d9ba
x169y119=f4dbbc
x170y119=f3dabb
x171y119=f4dbbc
x172y119=f5dcbd
x173y119=f5dcbd
x174y119=f6ddbe
x175y119=f6ddbf
x176y119=f7debf
x1y120=afb8bf
x2y120=adb6bd
x3y120=afb8bf
x4y120=aeb9bf
x5y120=aeb9bf
x6y120=b1bbc4
x7y120=bac4cd
x8y120=afb9c2
x9y120=b9c3cd
x10y120=bcc6cf
x11y120=b8c2cc
x12y120=b7c1ca
x13y120=afb9c2
x14y120=a3adb6
x15y120=a3adb6
x16y120=96a0a9
x17y120=969fa8
x18y120=919aa1
x19y120=9099a2
x20y120=9099a0
x21y120=9099a0
x22y120=959ca2
x23y120=90979d
x24y120=8f969c
x25y120=939aa0
x26y120=939aa0
x27y120=969da3
x28y120=99a0a6
x29y120=9da4aa
x30y120=9fa8ad
x31y120=a0a9ae
x32y120=a6afb4
x33y120=a9b4ba
x34y120=a7b2b8
x35y120=a4afb5
x36y120=a7b1ba
x37y120=adb7c0
x38y120=afbcc4
x39y120=aebbc4
x40y120=aebbc4
x41y120=b0bdc6
x42y120=b0bdc6
x43y120=b2bfc8
x44y120=b3c0c9
x45y120=b7c5d0
x46y120=b3c1cc
x47y120=aebecb
x48y120=b7c7d4
x49y120=b8c8d7
x50y120=b8c8d5
x51y120=b5c5d2
x52y120=bdced8
x53y120=bacad7
x54y120=bbcbd8
x55y120=b8c6d1
x56y120=b0bdc5
x57y120=a7b0b5
x58y120=9ea6a9
x59y120=90989b
x60y120=8a9295
x61y120=8c9399
x62y120=8b9298
x63y120=90989b
x64y120=9a9fa2
x65y120=9ea3a6
x66y120=a0a6a6
x67y120=a2a6a7
x68y120=a3a8ab
x69y120=a6afb6
x70y120=b4c0cc
x71y120=b9cada
x72y120=b9cedf
x73y120=bdd2e5
x74y120=c0d3e4
x75y120=c2d2e2
x76y120=c2ccd6
x77y120=8b9191
x78y120=292a25
x79y120=13140f
x80y120=12110d
x81y120=13120e
x82y120=14150f
x83y120=141710
x84y120=161813
x85y120=0f110c
x86y120=11130e
x87y120=12130e
x88y120=10120d
x89y120=131311
x90y120=121413
x91y120=121413
x92y120=121315
x93y120=121413
x94y120=121411
x95y120=141412
x96y120=12130e
x97y120=111310
x98y120=101211
x99y120=101211
x100y120=141412
x101y120=13140f
x102y120=151610
x103y120=15140f
x104y120=151610
x105y120=161712
x106y120=161712
x107y120=161511
x108y120=1b1a15
x109y120=201d16
x110y120=26231c
x111y120=25221b
x112y120=29261f
x113y120=29261f
x114y120=212119
x115y120=1f2018
x116y120=272822
x117y120=2a2c27
x118y120=252722
x119y120=2c2d28
x120y120=484742
x121y120=635e58
x122y120=5d544d
x123y120=50433a
x124y120=46382d
x125y120=b5a99d
x126y120=fcf3e4
x127y120=fffaea
x128y120=fffde9
x129y120=fffde7
x130y120=fffae0
x131y120=fff7dc
x132y120=fff5d9
x133y120=fff1d4
x134y120=fdeecf
x135y120=ffeed0
x136y120=ffe9ca
x137y120=fde6c7
x138y120=fde6c7
x139y120=f7dfc3
x140y120=f5ddc3
x141y120=eed6bc
x142y120=e7cfb3
x143y120=e1caab
x144y120=d2bb9b
x145y120=c3ac8c
x146y120=b59c7d
x147y120=a88d6f
x148y120=a78c6f
x149y120=a88e77
x150y120=a88f79
x151y120=a8927b
x152y120=a7937a
x153y120=ae997e
x154y120=b0987c
x155y120=b69e82
x156y120=bea587
x157y120=c4ac8a
x158y120=c9b18b
x159y120=cfb791
x160y120=d5bd97
x161y120=dac29c
x162y120=dec6a2
x163y120=e2caa6
x164y120=e5cda9
x165y120=e9d1af
x166y120=eed6b4
x167y120=f0d7b8
x168y120=f2d9ba
x169y120=f4dbbc
x170y120=f4dbbc
x171y120=f6ddbe
x172y120=f5dcbd
x173y120=f5dcbe
x174y120=f6ddbf
x175y120=f6ddbf
x176y120=f7dec0
x1y121=a7aeb4
x2y121=9fa6ac
x3y121=9fa6ac
x4y121=9ea5ab
x5y121=a0a7ad
x6y121=9ea7ae
x7y121=a4adb4
x8y121=a2abb2
x9y121=a4adb6
x10y121=a3acb3
x11y121=a5aeb7
x12y121=a4adb4
x13y121=a0a9b0
x14y121=9aa3aa
x15y121=989fa7
x16y121=8d949c
x17y121=8a9199
x18y121=899096
x19y121=899098
x20y121=8e959b
x21y121=8f969c
x22y121=92979d
x23y121=92979d
x24y121=93989c
x25y121=8f9498
x26y121=94999d
x27y121=989da1
x28y121=929a9d
x29y121=92999f
x30y121=979ea4
x31y121=98a1a6
x32y121=9ea7ac
x33y121=a8b1b6
x34y121=a9b2b7
x35y121=a7b0b5
x36y121=a7b2b8
x37y121=a5b0b6
x38y121=adb8be
x39y121=b1bbc4
x40y121=b2bcc5
x41y121=afb9c2
x42y121=b2bcc5
x43y121=b0bdc6
x44y121=b4c1ca
x45y121=b7c5d0
x46y121=b4c2cd
x47y121=b5c5d2
x48y121=b7c7d4
x49y121=b0c2d0
x50y121=b4c6d2
x51y121=b6c6d3
x52y121=bdced8
x53y121=c0d2de
x54y121=bcccdb
x55y121=b7c7d4
x56y121=bbc9d4
x57y121=adb7c0
x58y121=a1aaaf
x59y121=9fa7aa
x60y121=8c9497
x61y121=899096
x62y121=8e959b
x63y121=8f979a
x64y121=969ea1
x65y121=9da5a8
x66y121=9ca1a4
x67y121=9fa3a4
x68y121=9ea2a5
x69y121=a4a9ad
x70y121=b4bec7
x71y121=b9cada
x72y121=bbd0e3
x73y121=bed3e6
x74y121=c1d6e9
x75y121=c2d4e8
x76y121=c6d7e7
x77y121=c3d4de
x78y121=a2adb3
x79y121=3e4245
x80y121=121212
x81y121=0f0f0d
x82y121=10120d
x83y121=12140f
x84y121=131512
x85y121=131512
x86y121=10120f
x87y121=12130e
x88y121=11120d
x89y121=13120e
x90y121=121210
x91y121=121413
x92y121=131514
x93y121=141615
x94y121=131311
x95y121=121210
x96y121=141510
x97y121=13140f
x98y121=11110f
x99y121=111111
x100y121=131313
x101y121=131311
x102y121=141613
x103y121=161614
x104y121=141412
x105y121=171715
x106y121=181715
x107y121=161511
x108y121=191814
x109y121=1b1c16
x110y121=21221d
x111y121=1c1d18
x112y121=1c1d18
x113y121=1d1c18
x114y121=1b1a15
x115y121=181913
x116y121=1a1b16
x117y121=1b1c17
x118y121=1e1f1a
x119y121=272622
x120y121=312c28
x121y121=4e473f
x122y121=534940
x123y121=574841
x124y121=534238
x125y121=867362
x126y121=e3d1b9
x127y121=eddec1
x128y121=faedcd
x129y121=fff2d5
x130y121=fff4d7
x131y121=fff1d4
x132y121=fef0d3
x133y121=fbeccd
x134y121=fdecce
x135y121=ffeacd
x136y121=ffe8c9
x137y121=fde6c7
x138y121=fce5c6
x139y121=fae2c6
x140y121=f2ddc0
x141y121=f0dbc0
x142y121=e8d3b6
x143y121=e1caab
x144y121=ceb596
x145y121=bfa486
x146y121=b09675
x147y121=b19879
x148y121=b79f83
x149y121=b8a68e
x150y121=c8b9a4
x151y121=c5b8a7
x152y121=c7bca8
x153y121=c5b69f
x154y121=c2b098
x155y121=c4ae96
x156y121=c6ae92
x157y121=ccb595
x158y121=d1ba98
x159y121=d5bd9b
x160y121=d8c09c
x161y121=dec6a0
x162y121=e1c9a3
x163y121=e4cca6
x164y121=ead2ae
x165y121=ead2b0
x166y121=eed6b4
x167y121=f1d8b9
x168y121=f3dabb
x169y121=f4dbbc
x170y121=f4dbbc
x171y121=f5dcbe
x172y121=f5dcbe
x173y121=f6dcc1
x174y121=f7ddc2
x175y121=f5dbc0
x176y121=f7ddc2
x1y122=bdc2c6
x2y122=b4b9bd
x3y122=acb1b7
x4y122=a4a9af
x5y122=9fa6ac
x6y122=9aa1a7
x7y122=9aa1a9
x8y122=99a0a8
x9y122=9ba2aa
x10y122=989fa7
x11y122=99a0a8
x12y122=9198a0
x13y122=8b929a
x14y122=8d949c
x15y122=8b8f98
x16y122=898d96
x17y122=8b9096
x18y122=888f95
x19y122=83888e
x20y122=81888e
x21y122=858a90
x22y122=8a9197
x23y122=8d9296
x24y122=909599
x25y122=8d9296
x26y122=91969a
x27y122=92979b
x28y122=90989b
x29y122=939aa0
x30y122=959ca2
x31y122=949da2
x32y122=9ca5aa
x33y122=9fa8ad
x34y122=a4adb2
x35y122=a6afb4
x36y122=a2abb0
x37y122=a2abb2
x38y122=a7b2b8
x39y122=aeb8c1
x40y122=afb9c2
x41y122=acb6bf
x42y122=abb5be
x43y122=b2bcc6
x44y122=b1bec7
x45y122=afbdc8
x46y122=b6c4cf
x47y122=b7c7d4
x48y122=b6c6d3
x49y122=b3c5d3
x50y122=b2c4d0
x51y122=b4c4d1
x52y122=becedb
x53y122=bcceda
x54y122=bccedc
x55y122=becedd
x56y122=b7c7d4
x57y122=aebbc4
x58y122=b1bcc2
x59y122=a5acb2
x60y122=969ea1
x61y122=8b9298
x62y122=8c9497
x63y122=8b9396
x64y122=949c9f
x65y122=949c9f
x66y122=969ea1
x67y122=9a9ea1
x68y122=9a9ea1
x69y122=9fa3a6
x70y122=adb6bd
x71y122=b5c5d4
x72y122=bdd0e1
x73y122=c0d5e8
x74y122=c0d5e8
x75y122=bfd4e9
x76y122=c2d4e8
x77y122=c2d7e8
x78y122=c0d2e0
x79y122=bac3cc
x80y122=5f6468
x81y122=1e2223
x82y122=131512
x83y122=121411
x84y122=141613
x85y122=11130e
x86y122=141611
x87y122=151611
x88y122=11120d
x89y122=11120d
x90y122=121210
x91y122=121411
x92y122=121413
x93y122=121212
x94y122=171715
x95y122=13140f
x96y122=161712
x97y122=171813
x98y122=141611
x99y122=141412
x100y122=121210
x101y122=11110f
x102y122=131512
x103y122=181816
x104y122=191917
x105y122=181715
x106y122=181715
x107y122=1c1b17
x108y122=20211c
x109y122=1f211c
x110y122=1e201b
x111y122=20221f
x112y122=1d1d1b
x113y122=1d1e19
x114y122=1e1d19
x115y122=1a1b16
x116y122=191a15
x117y122=191a15
x118y122=21221d
x119y122=201c19
x120y122=292420
x121y122=362f27
x122y122=3a3128
x123y122=483b33
x124y122=503e34
x125y122=816b56
x126y122=ccb498
x127y122=e7d3b0
x128y122=f4e0bd
x129y122=fbe8c8
x130y122=ffeed0
x131y122=feedcf
x132y122=fbeacc
x133y122=fae7c9
x134y122=fdeacc
x135y122=ffe9ca
x136y122=fee7c8
x137y122=fee7c8
x138y122=f9e4c5
x139y122=f7e2c5
x140y122=f1dcbf
x141y122=e9d4b7
x142y122=e5ceaf
x143y122=d8bfa0
x144y122=c7ad8c
x145y122=c1a484
x146y122=caaf91
x147y122=d1b99d
x148y122=d8c7ad
x149y122=e2d5c2
x150y122=ebe2d3
x151y122=eee8da
x152y122=f0eada
x153y122=efe7d4
x154y122=e5d8c5
x155y122=deceb7
x156y122=dcc8b0
x157y122=dac6ab
x158y122=d9c4a5
x159y122=dbc4a4
x160y122=ddc6a4
x161y122=e2caa6
x162y122=e4cca6
x163y122=e7cfab
x164y122=ebd3b1
x165y122=ecd4b2
x166y122=efd6b7
x167y122=f2d9ba
x168y122=f4dbbc
x169y122=f4dbbd
x170y122=f5dcbe
x171y122=f6ddbf
x172y122=f6ddbf
x173y122=f5dbc0
x174y122=f6dcc1
x175y122=f5dbc0
x176y122=f6dcc1
x1y123=bfc4c8
x2y123=bfc4c8
x3y123=bdc4ca
x4y123=b6bdc3
x5y123=a9b0b6
x6y123=9ba2a8
x7y123=979ea4
x8y123=979ea4
x9y123=939aa2
x10y123=8f969e
x11y123=9198a0
x12y123=878e96
x13y123=818890
x14y123=828991
x15y123=7d848c
x16y123=818890
x17y123=82898f
x18y123=858e93
x19y123=858c92
x20y123=7d868b
x21y123=81888e
x22y123=848d92
x23y123=8a9197
x24y123=8b9298
x25y123=8b9298
x26y123=90979d
x27y123=92999f
x28y123=90979d
x29y123=90979d
x30y123=929ba0
x31y123=939ca1
x32y123=929ba0
x33y123=98a0a3
x34y123=9aa2a5
x35y123=9da5a8
x36y123=9fa9ab
x37y123=9da6ab
x38y123=a2abb0
x39y123=a8b1b8
x40y123=adb6bd
x41y123=aab3ba
x42y123=a7b2b8
x43y123=b0bac3
x44y123=b0bdc6
x45y123=b2c0cb
x46y123=b9c7d2
x47y123=b6c7d1
x48y123=b9cad4
x49y123=b7c7d4
x50y123=b7c7d4
x51y123=bdcdda
x52y123=becedb
x53y123=becedb
x54y123=c3d3e0
x55y123=b5c7d3
x56y123=b6c6d3
x57y123=b2c3cd
x58y123=b4c1ca
x59y123=a9b2b9
x60y123=9ba2a8
x61y123=90989b
x62y123=8c9497
x63y123=8e9699
x64y123=90999e
x65y123=919a9f
x66y123=959da0
x67y123=999da0
x68y123=989c9f
x69y123=9ea2a5
x70y123=a6abb1
x71y123=b4c0cc
x72y123=bdcddd
x73y123=c2d5e6
x74y123=bfd4e7
x75y123=c2d7ea
x76y123=c3d8eb
x77y123=c2d7ea
x78y123=c4d7e8
x79y123=bfd1df
x80y123=b8c6d1
x81y123=737a80
x82y123=1c2021
x83y123=161817
x84y123=10120d
x85y123=15140f
x86y123=151610
x87y123=12140f
x88y123=131512
x89y123=101511
x90y123=0f1410
x91y123=111310
x92y123=131311
x93y123=121210
x94y123=181914
x95y123=151410
x96y123=181914
x97y123=151712
x98y123=131812
x99y123=151712
x100y123=141510
x101y123=13140f
x102y123=151611
x103y123=161511
x104y123=171612
x105y123=181713
x106y123=1a1915
x107y123=181914
x108y123=171914
x109y123=171a13
x110y123=1a1d16
x111y123=1c1e19
x112y123=1f201b
x113y123=23241f
x114y123=1f201b
x115y123=1d1e19
x116y123=191a15
x117y123=1b1e17
x118y123=191c15
x119y123=1d1c18
x120y123=23201b
x121y123=27241f
x122y123=37322c
x123y123=3a312c
x124y123=44362b
x125y123=614b36
x126y123=c1a78c
x127y123=e2caa8
x128y123=efd7b5
x129y123=f7e0c0
x130y123=fde8c9
x131y123=fee9ca
x132y123=fbe8c8
x133y123=fbe6c7
x134y123=ffe8c9
x135y123=ffe7cb
x136y123=fde5c9
x137y123=fae5c8
x138y123=f7e4c6
x139y123=f2dfc1
x140y123=edd8b9
x141y123=e5ceac
x142y123=d8c09c
x143y123=c9ad86
x144y123=ceb28d
x145y123=dcbf9d
x146y123=e4cbad
x147y123=ecdac2
x148y123=f7ead9
x149y123=fff7ec
x150y123=fff9f1
x151y123=fffbf2
x152y123=fffcf1
x153y123=fef8ea
x154y123=f7f0e0
x155y123=f4e8d8
x156y123=f2e3d0
x157y123=eedec7
x158y123=ead9bf
x159y123=e5d1b6
x160y123=e3ceaf
x161y123=e8d1b1
x162y123=e9d2b2
x163y123=ebd4b5
x164y123=efd8b9
x165y123=f1dabb
x166y123=f2dbbc
x167y123=f5debf
x168y123=f5debf
x169y123=f5ddc1
x170y123=f6dfc0
x171y123=f7dec0
x172y123=f6ddbf
x173y123=f5dcbe
x174y123=f6ddbf
x175y123=f5dcbe
x176y123=f5dcbe
x1y124=b9bec2
x2y124=b3bbbe
x3y124=b7bec4
x4y124=bac1c7
x5y124=b7bec4
x6y124=b0b7bd
x7y124=a8afb5
x8y124=9da4aa
x9y124=949ba3
x10y124=8e959d
x11y124=8f969e
x12y124=899098
x13y124=858c94
x14y124=828991
x15y124=818890
x16y124=858c94
x17y124=879095
x18y124=858e93
x19y124=80898e
x20y124=7d868b
x21y124=838c91
x22y124=899297
x23y124=858e93
x24y124=80898e
x25y124=80878d
x26y124=899096
x27y124=90979d
x28y124=92999f
x29y124=91989e
x30y124=949da2
x31y124=99a0a6
x32y124=939aa0
x33y124=969ea1
x34y124=8f979a
x35y124=929a9d
x36y124=9fa7aa
x37y124=a1aaaf
x38y124=a5aeb3
x39y124=a6afb6
x40y124=a7b0b7
x41y124=a9b2b9
x42y124=abb4bb
x43y124=aeb7c0
x44y124=acb6bf
x45y124=b2bfc8
x46y124=b6c4cf
x47y124=b6c4cf
x48y124=b6c7d1
x49y124=b6c4cf
x50y124=b6c6d3
x51y124=b6c6d5
x52y124=bcccdb
x53y124=b8c8d7
x54y124=b7c7d4
x55y124=b1c3cf
x56y124=aec0cc
x57y124=b8c8d5
x58y124=b5c3ce
x59y124=b3bdc7
x60y124=a2abb2
x61y124=99a1a4
x62y124=8f9799
x63y124=8e959b
x64y124=8d969b
x65y124=92999f
x66y124=959da0
x67y124=979ca0
x68y124=9da1a4
x69y124=9e9fa1
x70y124=a4a7ac
x71y124=aeb6c1
x72y124=b7c4d4
x73y124=bdd0e1
x74y124=c3d8eb
x75y124=c0d5e8
x76y124=bed3e6
x77y124=bed3e8
x78y124=bed3e8
x79y124=c2d9eb
x80y124=c3d6e5
x81y124=b8c5ce
x82y124=8d969b
x83y124=32373a
x84y124=1a1c19
x85y124=1c1b16
x86y124=1a1914
x87y124=181914
x88y124=141613
x89y124=121713
x90y124=111514
x91y124=10120f
x92y124=131311
x93y124=151611
x94y124=161712
x95y124=181713
x96y124=191a15
x97y124=171914
x98y124=171914
x99y124=191a15
x100y124=161712
x101y124=161711
x102y124=171812
x103y124=161510
x104y124=181712
x105y124=1b1a15
x106y124=161711
x107y124=171813
x108y124=141710
x109y124=171a13
x110y124=1a1d16
x111y124=1f201a
x112y124=252620
x113y124=272822
x114y124=2a2b25
x115y124=252620
x116y124=191a14
x117y124=151712
x118y124=181a15
x119y124=1c1d18
x120y124=20211c
x121y124=292823
x122y124=34312a
x123y124=3c352f
x124y124=40332a
x125y124=564130
x126y124=947a61
x127y124=dabfa1
x128y124=edd3b0
x129y124=f7debf
x130y124=fbe4c5
x131y124=fbe6c7
x132y124=fae5c6
x133y124=fee7c8
x134y124=fee7c8
x135y124=fee4c9
x136y124=fce4c8
x137y124=fae5ca
x138y124=f3dec1
x139y124=efdabb
x140y124=e8d1af
x141y124=d3bb95
x142y124=c2a981
x143y124=d7b993
x144y124=e6caa3
x145y124=edd3b2
x146y124=f3dfc4
x147y124=fbeedd
x148y124=fffaf1
x149y124=fffefa
x150y124=fffdfa
x151y124=fffffa
x152y124=fffef7
x153y124=fffef2
x154y124=fff9ed
x155y124=fff5e9
x156y124=fdf1e3
x157y124=f9ecdb
x158y124=f9ead5
x159y124=f5e5cc
x160y124=f4e0c5
x161y124=f1dcbf
x162y124=f2ddc0
x163y124=f4dcc2
x164y124=f3dec3
x165y124=f8e0c6
x166y124=f9e1c7
x167y124=fae2c8
x168y124=f9e1c7
x169y124=f9e1c7
x170y124=f7dfc3
x171y124=f7ddc2
x172y124=f7dec0
x173y124=f6ddbf
x174y124=f6ddbf
x175y124=f6ddbf
x176y124=f5dcbe
x1y125=b5bdc0
x2y125=aeb8ba
x3y125=aeb8ba
x4y125=afb9bb
x5y125=b4bdc2
x6y125=b9c2c7
x7y125=bcc3c9
x8y125=b5bcc2
x9y125=aeb5bb
x10y125=9fa6ac
x11y125=939ca1
x12y125=8b9499
x13y125=879095
x14y125=889196
x15y125=8b9499
x16y125=8d969b
x17y125=888f95
x18y125=868d93
x19y125=858c92
x20y125=868d93
x21y125=868d93
x22y125=899096
x23y125=888f97
x24y125=868d95
x25y125=868d95
x26y125=888f97
x27y125=8d9298
x28y125=90959b
x29y125=94999f
x30y125=92999f
x31y125=9a9fa5
x32y125=9ca1a7
x33y125=9ca1a5
x34y125=9a9fa3
x35y125=9ba3a6
x36y125=9fa7aa
x37y125=a4abb1
x38y125=a9b0b6
x39y125=abb2b8
x40y125=acb3b9
x41y125=a6adb3
x42y125=a6afb4
x43y125=abb4bb
x44y125=aeb8c1
x45y125=b3bdc6
x46y125=b3c0c9
x47y125=b5c2cb
x48y125=b0bec7
x49y125=b8c5ce
x50y125=b5c3ce
x51y125=b7c7d6
x52y125=bcccdb
x53y125=b5c7d5
x54y125=b4c6d4
x55y125=b6c8d4
x56y125=bbcdd9
x57y125=b9cbd9
x58y125=b5c5d2
x59y125=b3bfcb
x60y125=a5b0b6
x61y125=9ca4a7
x62y125=979fa1
x63y125=90979d
x64y125=92999f
x65y125=969b9f
x66y125=969b9f
x67y125=979ca2
x68y125=96999e
x69y125=9b9c9e
x70y125=9da1a4
x71y125=a7aeb6
x72y125=b5c1cd
x73y125=bccddf
x74y125=c3d8ed
x75y125=c0d6eb
x76y125=bdd3e8
x77y125=bfd5ec
x78y125=c2d8ed
x79y125=c2d7ec
x80y125=c0d5e8
x81y125=bfd2e3
x82y125=bacad7
x83y125=a2abb2
x84y125=404445
x85y125=22211d
x86y125=25221b
x87y125=21201b
x88y125=1a1b15
x89y125=171916
x90y125=161815
x91y125=131512
x92y125=141412
x93y125=151611
x94y125=181713
x95y125=181914
x96y125=171813
x97y125=1a1a18
x98y125=1a1a18
x99y125=1b1a16
x100y125=181914
x101y125=181914
x102y125=171914
x103y125=161711
x104y125=191a14
x105y125=151610
x106y125=1c1d15
x107y125=14150f
x108y125=171611
x109y125=191813
x110y125=41403b
x111y125=24231f
x112y125=25241f
x113y125=2c2c22
x114y125=37372d
x115y125=404036
x116y125=4d4c47
x117y125=181a15
x118y125=141613
x119y125=191b16
x120y125=1f211c
x121y125=292a24
x122y125=34342c
x123y125=3f3832
x124y125=3f322a
x125y125=49352a
x126y125=6c533f
x127y125=d1b899
x128y125=ead0ad
x129y125=f6ddbe
x130y125=f9e2c2
x131y125=f9e4c5
x132y125=f8e3c4
x133y125=fbe6c7
x134y125=fbe6c7
x135y125=fee7c8
x136y125=fde6c7
x137y125=f7dfc3
x138y125=f6dfc0
x139y125=ecd4b2
x140y125=d5bd97
x141y125=bba27a
x142y125=d7bb94
x143y125=edd1ac
x144y125=f2d8b7
x145y125=f6e1c4
x146y125=fff0d9
x147y125=fffef3
x148y125=fffefb
x149y125=fffffd
x150y125=fefffd
x151y125=fdfef9
x152y125=fffffa
x153y125=fffef5
x154y125=fffcf1
x155y125=fff9ee
x156y125=fff6ea
x157y125=fdf0e0
x158y125=fdeedb
x159y125=faead3
x160y125=f8e7cd
x161y125=f9e5cc
x162y125=fae6cd
x163y125=f9e3cc
x164y125=f7e3cb
x165y125=f8e2cb
x166y125=f9e3cc
x167y125=fae4cc
x168y125=fae4cc
x169y125=fae4cc
x170y125=f6e1c6
x171y125=f8e0c4
x172y125=f6dec2
x173y125=f6dfc0
x174y125=f4ddbe
x175y125=f6ddbf
x176y125=f5dcbe
x1y126=adb7b9
x2y126=aab4b6
x3y126=abb5b7
x4y126=adb7b9
x5y126=b3bac0
x6y126=b3bac0
x7y126=b3bac0
x8y126=b2b9bf
x9y126=b9c0c6
x10y126=b5bcc2
x11y126=b1b8be
x12y126=a7b0b5
x13y126=989fa5
x14y126=949da2
x15y126=8f969c
x16y126=90979d
x17y126=90979d
x18y126=8b9298
x19y126=8f969c
x20y126=8f969c
x21y126=8e959b
x22y126=8a9197
x23y126=888f97
x24y126=868d95
x25y126=899098
x26y126=888f95
x27y126=8d9298
x28y126=91969c
x29y126=969ba1
x30y126=989da3
x31y126=9ba0a6
x32y126=999ea2
x33y126=9da2a6
x34y126=a0a5a9
x35y126=9ba3a6
x36y126=99a1a4
x37y126=a4abb1
x38y126=afb6bc
x39y126=aeb5bb
x40y126=acb3b9
x41y126=a9b0b6
x42y126=a4abb1
x43y126=a9b0b8
x44y126=acb5bc
x45y126=aeb7c0
x46y126=adb7c0
x47y126=b0bac3
x48y126=b0bdc6
x49y126=b3c0c9
x50y126=b1bdc9
x51y126=b8c5d5
x52y126=bdcddd
x53y126=b5c7d5
x54y126=b6c8d6
x55y126=bdcfdd
x56y126=baccda
x57y126=b6c7d7
x58y126=b6c6d5
x59y126=b6c4cf
x60y126=abb8c0
x61y126=a4adb2
x62y126=9ca4a7
x63y126=94999d
x64y126=8e9397
x65y126=909599
x66y126=959a9e
x67y126=959aa0
x68y126=979ca0
x69y126=9b9ca0
x70y126=9da1a4
x71y126=9ba2a8
x72y126=aeb8c2
x73y126=b6c6d6
x74y126=bfd4e7
x75y126=bed4e9
x76y126=bfd8ec
x77y126=c2d8ef
x78y126=c4daf1
x79y126=c1d7ee
x80y126=bdd3e8
x81y126=bfd5ea
x82y126=bdd2e3
x83y126=b9c7d2
x84y126=a9b2b7
x85y126=626667
x86y126=2c2d28
x87y126=262520
x88y126=272621
x89y126=201f1a
x90y126=1d1e19
x91y126=1b1c17
x92y126=181914
x93y126=161511
x94y126=181713
x95y126=141510
x96y126=151611
x97y126=191814
x98y126=1b1a16
x99y126=1c1b17
x100y126=1b1c17
x101y126=1a1b16
x102y126=171914
x103y126=171813
x104y126=171812
x105y126=1b1c16
x106y126=1c1d15
x107y126=181913
x108y126=171611
x109y126=15140f
x110y126=201f1b
x111y126=24231f
x112y126=262520
x113y126=2e2e24
x114y126=3e3e32
x115y126=3f3c35
x116y126=282722
x117y126=11110f
x118y126=111312
x119y126=121411
x120y126=1e201b
x121y126=2f302a
x122y126=3a3730
x123y126=3d362e
x124y126=453830
x125y126=4b392f
x126y126=533c2c
x127y126=bea587
x128y126=e7cfab
x129y126=f3dbb9
x130y126=f9e2c2
x131y126=fae5c6
x132y126=f8e3c6
x133y126=fae5c8
x134y126=fbe6c7
x135y126=fde6c7
x136y126=fbe4c5
x137y126=f7e0c1
x138y126=f1d8b9
x139y126=e1c7a4
x140y126=c1a57e
x141y126=d6ba92
x142y126=ebcfa8
x143y126=f4dab9
x144y126=f6dfc0
x145y126=fcecd3
x146y126=fffce9
x147y126=fffcf6
x148y126=ffffff
x149y126=feffff
x150y126=feffff
x151y126=fefffd
x152y126=fffffb
x153y126=fffffa
x154y126=fffef5
x155y126=fffdf1
x156y126=fff8eb
x157y126=fcf3e2
x158y126=fdf0df
x159y126=fcecd5
x160y126=f9e7cf
x161y126=f9e5cd
x162y126=fbe7cf
x163y126=fae6ce
x164y126=fae6ce
x165y126=f9e5cd
x166y126=fae6ce
x167y126=fbe7cf
x168y126=fce6cf
x169y126=fbe5cd
x170y126=f9e3cb
x171y126=fae2c8
x172y126=f7dfc3
x173y126=f6dec2
x174y126=f3dcbd
x175y126=f6dcc1
x176y126=f5dcbe
x1y127=aeb6b9
x2y127=aeb6b9
x3y127=aeb6b9
x4y127=afb7ba
x5y127=b2b7bb
x6y127=adb2b6
x7y127=aaafb3
x8y127=abb0b4
x9y127=afb4b8
x10y127=b1b6ba
x11y127=b5babe
x12y127=b3bbbe
x13y127=aeb3b7
x14y127=abb3b6
x15y127=a3a8ac
x16y127=a0a5a9
x17y127=9ca1a5
x18y127=969b9f
x19y127=949c9f
x20y127=979fa2
x21y127=929ba0
x22y127=8f989d
x23y127=8a9398
x24y127=8b9499
x25y127=90999e
x26y127=8e979c
x27y127=90979d
x28y127=91999c
x29y127=929a9d
x30y127=98a0a3
x31y127=99a1a4
x32y127=939b9e
x33y127=969ea1
x34y127=9ca4a7
x35y127=9ca3a9
x36y127=9da4aa
x37y127=a7aeb4
x38y127=b2b9bf
x39y127=adb4ba
x40y127=abb2b8
x41y127=a8adb1
x42y127=a2aaad
x43y127=a1a8ae
x44y127=a7b0b5
x45y127=b0b9c0
x46y127=b6c1c7
x47y127=b3bec4
x48y127=aeb8c1
x49y127=aebbc3
x50y127=b5c2cb
x51y127=b6c4d1
x52y127=b8c8d7
x53y127=bccddd
x54y127=b9ccda
x55y127=bbcedc
x56y127=b4c6d4
x57y127=b3c4d4
x58y127=b6c6d5
x59y127=bac8d5
x60y127=b1bec7
x61y127=abb6bc
x62y127=9da7a9
x63y127=9da0a5
x64y127=96999e
x65y127=909599
x66y127=90989b
x67y127=959a9d
x68y127=94999c
x69y127=989da1
x70y127=989da3
x71y127=989da3
x72y127=a4adb4
x73y127=b6c4d1
x74y127=c0d1e1
x75y127=bcd1e4
x76y127=c4daef
x77y127=c5d9f1
x78y127=c4daf1
x79y127=bcd4ec
x80y127=bed7ed
x81y127=bed4e9
x82y127=bfd6e8
x83y127=bbd1df
x84y127=c1d3df
x85y127=b1bec6
x86y127=7a8285
x87y127=323431
x88y127=292823
x89y127=2a251f
x90y127=28241b
x91y127=27241d
x92y127=232019
x93y127=1c1b16
x94y127=1b1c16
x95y127=191a14
x96y127=191a14
x97y127=1d1c17
x98y127=201f1a
x99y127=1e1f19
x100y127=1d1e18
x101y127=1c1d18
x102y127=1c1d18
x103y127=1d1c18
x104y127=1b1c17
x105y127=1c1d18
x106y127=1e211a
x107y127=181a15
x108y127=181914
x109y127=1a1b16
x110y127=191a15
x111y127=20211c
x112y127=23241e
x113y127=313328
x114y127=44443c
x115y127=3d3936
x116y127=232220
x117y127=141414
x118y127=101010
x119y127=11110f
x120y127=1c1d18
x121y127=302d28
x122y127=45403a
x123y127=3f362f
x124y127=3d332a
x125y127=413328
x126y127=4a3726
x127y127=baa286
x128y127=e2caa8
x129y127=efd8b8
x130y127=f6e1c2
x131y127=f9e4c7
x132y127=f6e2c7
x133y127=f6e2c7
x134y127=f9e4c7
x135y127=fae3c4
x136y127=f5debf
x137y127=f2d9bb
x138y127=e9d1af
x139y127=caae89
x140y127=d0b48c
x141y127=eacea6
x142y127=f5dbb6
x143y127=f8e1c1
x144y127=f8e8ce
x145y127=fdf5e0
x146y127=fffff1
x147y127=fffffa
x148y127=fffeff
x149y127=fdfdfd
x150y127=ffffff
x151y127=ffffff
x152y127=ffffff
x153y127=fffffd
x154y127=fffffa
x155y127=fffff3
x156y127=fffdec
x157y127=fef9e6
x158y127=fbf3de
x159y127=faebd6
x160y127=f5e5cc
x161y127=f4e3c9
x162y127=f6e5cb
x163y127=f6e5cb
x164y127=f7e6cc
x165y127=f9e8ce
x166y127=f9e8ce
x167y127=fae9cf
x168y127=fde9d0
x169y127=fbe7ce
x170y127=fbe7ce
x171y127=f9e4c9
x172y127=f6e1c6
x173y127=f5ddc3
x174y127=f4dcc0
x175y127=f4dcc2
x176y127=f4dcc0
x1y128=b0b8bb
x2y128=b2babd
x3y128=b5babe
x4y128=b5babe
x5y128=b2b7bb
x6y128=b1b6ba
x7y128=aeb3b7
x8y128=aaafb3
x9y128=a9aeb2
x10y128=aaafb3
x11y128=aeb3b7
x12y128=afb4b8
x13y128=b3b8bc
x14y128=b2b7bb
x15y128=aeb3b7
x16y128=acb1b5
x17y128=a6abaf
x18y128=a3a8ac
x19y128=a4acaf
x20y128=9fa7aa
x21y128=9aa3a8
x22y128=919a9f
x23y128=90999e
x24y128=959ea3
x25y128=98a1a6
x26y128=969fa4
x27y128=959da0
x28y128=979fa2
x29y128=979fa2
x30y128=99a1a4
x31y128=979fa2
x32y128=98a0a3
x33y128=9aa2a5
x34y128=9ba2a8
x35y128=9ea5ab
x36y128=9da4aa
x37y128=a5acb2
x38y128=abb2b8
x39y128=a7aeb4
x40y128=a0a7ad
x41y128=a0a5a9
x42y128=a3a8ac
x43y128=a2a9af
x44y128=abb2b8
x45y128=a8b1b8
x46y128=a9b2b9
x47y128=a9b4ba
x48y128=abb6bc
x49y128=acb6bf
x50y128=b0bdc6
x51y128=b6c2ce
x52y128=b5c3d0
x53y128=b6c8d6
x54y128=b2c5d3
x55y128=b7c9d7
x56y128=b5c7d5
x57y128=b6c7d7
x58y128=b9c9d9
x59y128=b9c6d6
x60y128=b2c0cb
x61y128=b0bdc5
x62y128=9fa8ad
x63y128=9ca1a5
x64y128=9ca0a3
x65y128=959a9d
x66y128=919699
x67y128=939999
x68y128=94999c
x69y128=969b9f
x70y128=979ca2
x71y128=979ca0
x72y128=9da4aa
x73y128=b1bbc5
x74y128=b6c6d5
x75y128=bcd1e4
x76y128=c2d8ed
x77y128=c3d7ef
x78y128=bdd3ea
x79y128=bed6ee
x80y128=bbd3eb
x81y128=bdd6ea
x82y128=bcd5e9
x83y128=c0d6eb
x84y128=c2d7e8
x85y128=bdcfdd
x86y128=b4c3ca
x87y128=8b9395
x88y128=3e403d
x89y128=2a2722
x90y128=312a22
x91y128=302c23
x92y128=29241e
x93y128=24241c
x94y128=23221d
x95y128=272621
x96y128=22221a
x97y128=212119
x98y128=24241c
x99y128=202018
x100y128=1f1f17
x101y128=221f1a
x102y128=231f1c
x103y128=26221f
x104y128=201f1b
x105y128=24231e
x106y128=23241e
x107y128=1d1e19
x108y128=1a1b16
x109y128=1a1a18
x110y128=1c1d18
x111y128=1a1c17
x112y128=262721
x113y128=33342c
x114y128=414139
x115y128=34332f
x116y128=1f1e1c
x117y128=151513
x118y128=151513
x119y128=161614
x120y128=191814
x121y128=292420
x122y128=3c352f
x123y128=3b3229
x124y128=3b3127
x125y128=3e3025
x126y128=5f4e3c
x127y128=c2aa8e
x128y128=dfc7a5
x129y128=eedab9
x130y128=f5e0c1
x131y128=f8e3c8
x132y128=f6e1c6
x133y128=f5e1c6
x134y128=f7e2c5
x135y128=f6e1c4
x136y128=f3dcbd
x137y128=ecd3b4
x138y128=d5b896
x139y128=bea07a
x140y128=e0c39b
x141y128=f2d6af
x142y128=f7dfb9
x143y128=f9e4c5
x144y128=fdefd5
x145y128=fff9e6
x146y128=fffff3
x147y128=fffffb
x148y128=fffeff
x149y128=fffffd
x150y128=fffeff
x151y128=ffffff
x152y128=ffffff
x153y128=fffeff
x154y128=fffefa
x155y128=fffff3
x156y128=fffeec
x157y128=fefbe8
x158y128=f8f2dc
x159y128=f9ead5
x160y128=f6e6cd
x161y128=f4e3c9
x162y128=f2e1c5
x163y128=f1e0c4
x164y128=f4e0c5
x165y128=f9e5ca
x166y128=f8e4cb
x167y128=fbe7ce
x168y128=fce8cf
x169y128=fce8cf
x170y128=feead1
x171y128=f9e4c9
x172y128=f6e1c6
x173y128=f5ddc3
x174y128=f6dec4
x175y128=f4dcc2
x176y128=f3dbc1
x1y129=b9c0c6
x2y129=bbc2c8
x3y129=b6bec1
x4y129=b3bbbe
x5y129=aeb6b9
x6y129=acb4b7
x7y129=b0b5b9
x8y129=aaafb3
x9y129=a8adb1
x10y129=adb2b6
x11y129=aeb3b7
x12y129=a9aeb2
x13y129=a8b0b3
x14y129=a9b1b4
x15y129=adb5b8
x16y129=abb3b6
x17y129=aaafb3
x18y129=acb1b5
x19y129=acb3b9
x20y129=aab1b7
x21y129=a8b1b8
x22y129=a2abb2
x23y129=a0a9b0
x24y129=9fa8af
x25y129=9da4aa
x26y129=9da4aa
x27y129=9fa6ac
x28y129=a0a7ad
x29y129=a0a7ad
x30y129=a2a9af
x31y129=9fa6ac
x32y129=a2a9af
x33y129=a5acb2
x34y129=a5acb2
x35y129=a2a9af
x36y129=a4abb1
x37y129=a6aeb1
x38y129=aab2b5
x39y129=a7acb0
x40y129=9ea3a7
x41y129=9a9fa5
x42y129=9ca1a7
x43y129=9fa6ac
x44y129=a6adb3
x45y129=a7b0b7
x46y129=a9b2b9
x47y129=aab3ba
x48y129=a8b1b8
x49y129=abb4bb
x50y129=aeb8c1
x51y129=b2bfc8
x52y129=b4c2cb
x53y129=b3c4ce
x54y129=b1c3cf
x55y129=b5c5d2
x56y129=b5c7d5
x57y129=b5c6d6
x58y129=b6c7d7
x59y129=b2c2d1
x60y129=aebcc9
x61y129=b1bec7
x62y129=a1acb2
x63y129=9da5a8
x64y129=9da2a5
x65y129=989da0
x66y129=93989b
x67y129=93989b
x68y129=94999c
x69y129=959a9d
x70y129=989c9f
x71y129=969a9d
x72y129=9ba0a4
x73y129=a8b2bc
x74y129=b5c5d4
x75y129=bbd0e1
x76y129=c0d7e9
x77y129=bed4e9
x78y129=bdd3ea
x79y129=bfd5ec
x80y129=bcd5eb
x81y129=bdd6ec
x82y129=bdd6ec
x83y129=c1d7ee
x84y129=c1d6eb
x85y129=bcd1e2
x86y129=b8cbd9
x87y129=b7c6cd
x88y129=a3adaf
x89y129=575958
x90y129=2b2823
x91y129=2a251f
x92y129=29241e
x93y129=28251e
x94y129=28251e
x95y129=333029
x96y129=312e27
x97y129=333029
x98y129=2b2620
x99y129=28241b
x100y129=28231d
x101y129=2e2721
x102y129=2c251f
x103y129=322d27
x104y129=2b2620
x105y129=343027
x106y129=38332d
x107y129=24211c
x108y129=21201c
x109y129=1d1d1b
x110y129=1c1d18
x111y129=21221d
x112y129=272822
x113y129=2e2d28
x114y129=302f2a
x115y129=2f2e29
x116y129=1f1e19
x117y129=181a15
x118y129=151714
x119y129=161614
x120y129=1c1815
x121y129=241f1b
x122y129=302923
x123y129=342d23
x124y129=352b1f
x125y129=3a2c1f
x126y129=867460
x127y129=c9b092
x128y129=dec6a4
x129y129=edd9b8
x130y129=f5e0c1
x131y129=f9e1c7
x132y129=f8e0c6
x133y129=f4dfc4
x134y129=f6e1c4
x135y129=f5e0c3
x136y129=edd6b7
x137y129=e0c3a3
x138y129=bc9e7a
x139y129=daba93
x140y129=eccfa7
x141y129=f5dbb6
x142y129=f8e2bd
x143y129=fde9c8
x144y129=ffefd5
x145y129=fff9e6
x146y129=fffff3
x147y129=fffffb
x148y129=ffffff
x149y129=ffffff
x150y129=ffffff
x151y129=ffffff
x152y129=ffffff
x153y129=ffffff
x154y129=fffffd
x155y129=fffff7
x156y129=fffef1
x157y129=fff9e9
x158y129=faf2df
x159y129=f9ead3
x160y129=f7e5cd
x161y129=f2e1c7
x162y129=eeddc1
x163y129=f1ddc2
x164y129=f0dbbe
x165y129=f1dcbf
x166y129=f5e0c5
x167y129=f9e3cb
x168y129=fbe7ce
x169y129=ffebd3
x170y129=fae6cd
x171y129=fbe6cb
x172y129=f5e0c5
x173y129=f3dec1
x174y129=f1dcbf
x175y129=f2ddc0
x176y129=f1dcbf
x1y130=b9c0c6
x2y130=b7bec4
x3y130=b0b8bb
x4y130=acb4b7
x5y130=a9b1b4
x6y130=a7afb2
x7y130=aaafb3
x8y130=a6abaf
x9y130=a2a7ab
x10y130=a7acb0
x11y130=a8adb1
x12y130=a3a8ac
x13y130=9fa7aa
x14y130=a4acaf
x15y130=a8b0b3
x16y130=a7afb2
x17y130=abb0b4
x18y130=aeb6b9
x19y130=adb4ba
x20y130=acb3b9
x21y130=aeb7be
x22y130=aeb7be
x23y130=a8b1b8
x24y130=a4adb4
x25y130=a5acb2
x26y130=a6adb3
x27y130=a6adb3
x28y130=a4abb1
x29y130=a1a8ae
x30y130=a3aab0
x31y130=a2a9af
x32y130=a5acb2
x33y130=a7aeb6
x34y130=a5acb4
x35y130=a1a8ae
x36y130=a3aab0
x37y130=a4acaf
x38y130=a9b1b4
x39y130=a8adb1
x40y130=9ea3a7
x41y130=989da3
x42y130=9a9fa5
x43y130=9da4aa
x44y130=a6adb3
x45y130=aeb7be
x46y130=b7c0c7
x47y130=b7c0c7
x48y130=b0b9c0
x49y130=aeb7be
x50y130=aeb9bf
x51y130=b3bdc6
x52y130=a9b6be
x53y130=b1bfc8
x54y130=b2c3cd
x55y130=b5c5d2
x56y130=b4c4d1
x57y130=b5c5d4
x58y130=aebfcf
x59y130=b3c3d2
x60y130=b3c3d0
x61y130=b1bdc9
x62y130=aab4bd
x63y130=9aa4a6
x64y130=9aa2a4
x65y130=999f9f
x66y130=969c9c
x67y130=979fa2
x68y130=90989b
x69y130=959a9d
x70y130=999d9e
x71y130=999a9c
x72y130=979a9f
x73y130=9da6af
x74y130=b0becb
x75y130=b9ccdd
x76y130=bdd4e6
x77y130=c3d9ee
x78y130=c0d6ed
x79y130=bed4eb
x80y130=bdd6ec
x81y130=bcd5eb
x82y130=bcd5eb
x83y130=c2d6ef
x84y130=c2d6ee
x85y130=bdd3e8
x86y130=bdd4e4
x87y130=bed1df
x88y130=b9c7d0
x89y130=a9b1b4
x90y130=68696b
x91y130=242321
x92y130=1f1c17
x93y130=1f1c15
x94y130=201d16
x95y130=252118
x96y130=29251c
x97y130=2e2923
x98y130=2b2620
x99y130=2e2721
x100y130=352e26
x101y130=3a312a
x102y130=3e352e
x103y130=494039
x104y130=433a31
x105y130=564d44
x106y130=4a433b
x107y130=37322c
x108y130=27241f
x109y130=21201c
x110y130=20211c
x111y130=23221d
x112y130=23221d
x113y130=2d2a23
x114y130=2c2721
x115y130=2d2a23
x116y130=1e1e16
x117y130=161711
x118y130=161712
x119y130=191816
x120y130=1b1714
x121y130=261e1b
x122y130=2d261e
x123y130=30271e
x124y130=342a1e
x125y130=4e3e2e
x126y130=a59179
x127y130=ccb395
x128y130=e2caa8
x129y130=efdabb
x130y130=f7e2c5
x131y130=f6dec4
x132y130=f6dec4
x133y130=f4dfc4
x134y130=f4dfc2
x135y130=f0dbbc
x136y130=e8cfb0
x137y130=c6a987
x138y130=c9a983
x139y130=ebcba4
x140y130=f6dab2
x141y130=fae2bc
x142y130=fae3c1
x143y130=fbe6c7
x144y130=ffefd5
x145y130=fff8e5
x146y130=fffff3
x147y130=fffffb
x148y130=ffffff
x149y130=ffffff
x150y130=ffffff
x151y130=fffffd
x152y130=fffffd
x153y130=ffffff
x154y130=fffffd
x155y130=fffffa
x156y130=fffff3
x157y130=fef8ea
x158y130=fbf3e0
x159y130=fcedd6
x160y130=f7e5cd
x161y130=f2e1c7
x162y130=efdbc0
x163y130=efdabf
x164y130=eed9bc
x165y130=f0d8bc
x166y130=f4dcc0
x167y130=f5e0c5
x168y130=f9e3cb
x169y130=f8e4cc
x170y130=f9e5cc
x171y130=fce7cc
x172y130=f7e2c7
x173y130=f3dec1
x174y130=f1dcbf
x175y130=f2ddc0
x176y130=f0dbbe
x1y131=adb5b8
x2y131=aab2b5
x3y131=a6aeb1
x4y131=a5adb0
x5y131=a4acaf
x6y131=a0a8ab
x7y131=9fa4a8
x8y131=9fa4a8
x9y131=9a9fa3
x10y131=9ca1a5
x11y131=9fa4a8
x12y131=9da2a6
x13y131=9ea3a7
x14y131=a8adb1
x15y131=aab2b5
x16y131=aab2b5
x17y131=adb5b8
x18y131=b3bbbe
x19y131=b0b7bd
x20y131=adb6bb
x21y131=aeb5bb
x22y131=b0b7bd
x23y131=a7b0b5
x24y131=a3acb1
x25y131=a7aeb4
x26y131=aab1b7
x27y131=a9b1b4
x28y131=a6aeb1
x29y131=a5adb0
x30y131=abb3b6
x31y131=abb2b8
x32y131=abb2b8
x33y131=a9b2b9
x34y131=a7b0b7
x35y131=a2a9af
x36y131=a1a8ae
x37y131=a0a7ad
x38y131=a6adb3
x39y131=a9b0b6
x40y131=a8afb5
x41y131=a3aab0
x42y131=9ea5ab
x43y131=9fa6ae
x44y131=a8afb7
x45y131=b3bcc3
x46y131=bdc6cd
x47y131=c1cad1
x48y131=bfc8cf
x49y131=b8c1c8
x50y131=afbac0
x51y131=b4bec7
x52y131=aab7bf
x53y131=aab7c0
x54y131=b1bfc8
x55y131=b7c5d0
x56y131=b6c6d3
x57y131=aebecd
x58y131=b6c6d5
x59y131=b6c6d5
x60y131=b3c3d0
x61y131=b2beca
x62y131=afb9c2
x63y131=9ba4a9
x64y131=98a0a2
x65y131=989e9e
x66y131=989e9e
x67y131=979fa2
x68y131=939b9e
x69y131=979c9f
x70y131=969a9d
x71y131=9c9d9f
x72y131=9b9fa2
x73y131=9ca5ac
x74y131=a7b5c0
x75y131=b3c6d5
x76y131=bbd2e4
x77y131=c2d8ef
x78y131=bbd4ea
x79y131=bad3e9
x80y131=bed7eb
x81y131=bfd8ec
x82y131=bbd4e8
x83y131=c2d6ee
x84y131=bed2ea
x85y131=bed4e9
x86y131=bbd5e6
x87y131=b8d2e1
x88y131=b8cedb
x89y131=b9c7d2
x90y131=acb5be
x91y131=828689
x92y131=3e3e3c
x93y131=21221c
x94y131=1d1d15
x95y131=1f1c15
x96y131=27221c
x97y131=2a2521
x98y131=2a251f
x99y131=2c251f
x100y131=342d25
x101y131=352c23
x102y131=443b32
x103y131=4f453c
x104y131=4e443b
x105y131=544b42
x106y131=574e45
x107y131=433c34
x108y131=342f29
x109y131=282520
x110y131=23221d
x111y131=2a2722
x112y131=2a2720
x113y131=2b241c
x114y131=362f27
x115y131=463d36
x116y131=29221c
x117y131=191611
x118y131=171611
x119y131=191512
x120y131=1c1914
x121y131=251e16
x122y131=2d241b
x123y131=342a20
x124y131=403225
x125y131=736250
x126y131=b19d84
x127y131=cfbb9a
x128y131=e5ceac
x129y131=f1dcbd
x130y131=f4dfc4
x131y131=f4dfc4
x132y131=f3dec3
x133y131=efdbc0
x134y131=efdabd
x135y131=ebd4b2
x136y131=d3bb97
x137y131=bfa37c
x138y131=d8bb93
x139y131=f2d4ae
x140y131=f7dbb4
x141y131=f8e0ba
x142y131=fae3c1
x143y131=fae5c6
x144y131=ffedd5
x145y131=fff8e5
x146y131=fffef2
x147y131=fffffb
x148y131=ffffff
x149y131=ffffff
x150y131=ffffff
x151y131=fffffd
x152y131=fffffd
x153y131=ffffff
x154y131=fffffd
x155y131=fffffa
x156y131=fffff3
x157y131=fdfaeb
x158y131=fdf5e2
x159y131=feefda
x160y131=f8e6ce
x161y131=f3e2c8
x162y131=efdbc0
x163y131=eed9be
x164y131=f0d8bc
x165y131=efd7bb
x166y131=f0d8bc
x167y131=efdabf
x168y131=f4dfc4
x169y131=f8e4cb
x170y131=f7e3ca
x171y131=f9e4c9
x172y131=f5e0c5
x173y131=f3dbbf
x174y131=f3dbbf
x175y131=f3dbbf
x176y131=f1d9bd
x1y132=abb3b6
x2y132=a6aeb1
x3y132=a3abae
x4y132=a0a8ab
x5y132=9fa7aa
x6y132=9aa2a5
x7y132=9a9fa3
x8y132=9ca1a5
x9y132=989da1
x10y132=969b9f
x11y132=979ca0
x12y132=969b9f
x13y132=9a9fa3
x14y132=a5aaae
x15y132=a8b0b3
x16y132=abb3b6
x17y132=b0b8bb
x18y132=b6bec1
x19y132=b3bcc1
x20y132=aeb7bc
x21y132=acb3b9
x22y132=acb3b9
x23y132=a6afb4
x24y132=a6afb4
x25y132=a5acb2
x26y132=a3aab0
x27y132=a6aeb1
x28y132=a8b0b3
x29y132=aab2b5
x30y132=a9b1b4
x31y132=a9b0b6
x32y132=adb4ba
x33y132=aeb7be
x34y132=adb6bd
x35y132=a9b0b6
x36y132=a2a9af
x37y132=a0a7ad
x38y132=a3aab0
x39y132=a9b0b6
x40y132=aeb5bb
x41y132=abb2b8
x42y132=a6adb3
x43y132=a5acb4
x44y132=abb2ba
x45y132=b4bdc4
x46y132=bcc5cc
x47y132=c0c9d0
x48y132=bfc8cf
x49y132=bdc6cd
x50y132=b5c0c6
x51y132=b8c2cb
x52y132=a7b4bc
x53y132=a8b5be
x54y132=aebbc4
x55y132=b6c3cc
x56y132=b6c4cf
x57y132=beccd9
x58y132=bbcbda
x59y132=b4c4d3
x60y132=b6c6d3
x61y132=b9c5d1
x62y132=acb6bf
x63y132=9fa8ad
x64y132=969ea1
x65y132=959a9d
x66y132=989da0
x67y132=99a1a3
x68y132=979fa2
x69y132=969b9e
x70y132=999ea1
x71y132=9a9e9f
x72y132=979b9e
x73y132=979fa2
x74y132=9daab2
x75y132=acbecc
x76y132=b7ccdf
x77y132=bcd2e9
x78y132=bbd4ea
x79y132=bed7ed
x80y132=bdd6ea
x81y132=bad4e5
x82y132=bbd1e6
x83y132=bdd2e7
x84y132=c1d5ed
x85y132=bcd5e9
x86y132=bed7eb
x87y132=b7d2e5
x88y132=bad1e3
x89y132=bdcee0
x90y132=bdcbd8
x91y132=b7c0c9
x92y132=a8adb0
x93y132=767a79
x94y132=3a3c37
x95y132=21201b
x96y132=27221e
x97y132=2a2521
x98y132=2c2723
x99y132=2f2822
x100y132=2d261e
x101y132=2e271f
x102y132=2f281e
x103y132=382e25
x104y132=3d332a
x105y132=493f36
x106y132=554c43
x107y132=433a31
x108y132=3b342c
x109y132=2e2923
x110y132=2b2620
x111y132=342d25
x112y132=3f362f
x113y132=544a41
x114y132=635950
x115y132=524741
x116y132=3a312c
x117y132=1b1612
x118y132=1d1a15
x119y132=191611
x120y132=221d17
x121y132=2c231a
x122y132=33291f
x123y132=3d3125
x124y132=5f4f40
x125y132=917c67
x126y132=bfaa8f
x127y132=d9c5a4
x128y132=e6d2b1
x129y132=f3dec1
x130y132=f4dfc4
x131y132=f3dfc6
x132y132=f1ddc4
x133y132=ecd8bd
x134y132=ebd6b7
x135y132=e2caa6
x136y132=c3aa82
x137y132=c3a77f
x138y132=e1c59d
x139y132=f5d9b2
x140y132=f9dfba
x141y132=fae2be
x142y132=fce5c3
x143y132=fde8cb
x144y132=ffefd6
x145y132=fff8e5
x146y132=fffef3
x147y132=fffffb
x148y132=ffffff
x149y132=ffffff
x150y132=ffffff
x151y132=fffffd
x152y132=fffffd
x153y132=ffffff
x154y132=fffffd
x155y132=fffffa
x156y132=fffef5
x157y132=fffced
x158y132=fff8e5
x159y132=fef2dc
x160y132=f9e9d2
x161y132=f3e1c9
x162y132=efdbc0
x163y132=efd7bd
x164y132=efd7bb
x165y132=edd5b9
x166y132=edd5b9
x167y132=ecd4ba
x168y132=eed9be
x169y132=f3ddc5
x170y132=f2dec3
x171y132=f5e0c5
x172y132=f7e2c5
x173y132=f5ddc1
x174y132=f3dbbf
x175y132=f2dabe
x176y132=f1d9bd
x1y133=a6aeb1
x2y133=9fa7aa
x3y133=9da5a8
x4y133=99a1a4
x5y133=979fa2
x6y133=949c9f
x7y133=959a9e
x8y133=989da1
x9y133=969b9f
x10y133=92979b
x11y133=94999d
x12y133=969b9f
x13y133=9ba0a4
x14y133=a2a7ab
x15y133=a5adb0
x16y133=acb4b7
x17y133=b2babd
x18y133=b4bcbf
x19y133=b4bbc1
x20y133=afb6bc
x21y133=aab3b8
x22y133=a9b2b7
x23y133=a8afb5
x24y133=a9b0b6
x25y133=a7b1b3
x26y133=a3abae
x27y133=a5adb0
x28y133=a6aeb1
x29y133=a6adb3
x30y133=a1aaaf
x31y133=a6afb4
x32y133=aeb7bc
x33y133=acb5bc
x34y133=abb4bb
x35y133=a7b0b5
x36y133=a1aaaf
x37y133=a6afb4
x38y133=a7b0b5
x39y133=aab3b8
x40y133=adb6bb
x41y133=abb4bb
x42y133=a8b1b8
x43y133=aab3ba
x44y133=afb8bf
x45y133=b8c1c8
x46y133=bfc8cf
x47y133=c1cacf
x48y133=bcc5ca
x49y133=bfcad0
x50y133=b5c0c6
x51y133=afb9c2
x52y133=aab4bd
x53y133=a2acb5
x54y133=abb5be
x55y133=b3bdc6
x56y133=b5c2cb
x57y133=b9c7d2
x58y133=b9c7d4
x59y133=b9c9d6
x60y133=b7c7d4
x61y133=bcc8d4
x62y133=b2bcc5
x63y133=a5aeb5
x64y133=939aa0
x65y133=909598
x66y133=979c9f
x67y133=99a1a3
x68y133=98a0a2
x69y133=9ea3a7
x70y133=a0a5a8
x71y133=969a9b
x72y133=989c9d
x73y133=979fa1
x74y133=9ba6ac
x75y133=a7b7c4
x76y133=b5c8d9
x77y133=b8cee5
x78y133=bbd4ea
x79y133=bdd6ec
x80y133=bcd5e9
x81y133=bcd5e9
x82y133=b9d2e6
x83y133=bcd2e7
x84y133=bfd8ec
x85y133=c0d9ef
x86y133=bcd7ec
x87y133=bed7ed
x88y133=bdd3ea
x89y133=bfd1e7
x90y133=bbccde
x91y133=b6c6d3
x92y133=b7c4cc
x93y133=abb6ba
x94y133=98a1a0
x95y133=757573
x96y133=433f3c
x97y133=282520
x98y133=2c2924
x99y133=27221c
x100y133=29241e
x101y133=28251e
x102y133=28251e
x103y133=322b25
x104y133=393029
x105y133=41372e
x106y133=443a31
x107y133=473d34
x108y133=433a33
x109y133=39322a
x110y133=312821
x111y133=483b33
x112y133=6e5d55
x113y133=63554a
x114y133=4c3e35
x115y133=483b35
x116y133=322924
x117y133=1e1b16
x118y133=1c1c14
x119y133=201d16
x120y133=282119
x121y133=352b22
x122y133=41342b
x123y133=59493a
x124y133=796753
x125y133=ad957b
x126y133=cdb697
x127y133=e1ccaf
x128y133=edd8bb
x129y133=f3dec3
x130y133=f6e0c8
x131y133=eddbc3
x132y133=ebdac0
x133y133=ead7b9
x134y133=e4d0af
x135y133=d1ba91
x136y133=c2a980
x137y133=d2b68e
x138y133=e8cfa7
x139y133=f6dcb7
x140y133=fbe1be
x141y133=fae2be
x142y133=fbe4c2
x143y133=fde8cb
x144y133=ffefd8
x145y133=fff7e6
x146y133=fffff3
x147y133=fffffb
x148y133=ffffff
x149y133=ffffff
x150y133=ffffff
x151y133=ffffff
x152y133=ffffff
x153y133=ffffff
x154y133=fffffd
x155y133=fffffa
x156y133=fffff6
x157y133=fffff0
x158y133=fff9e7
x159y133=fdf2de
x160y133=faebd4
x161y133=f5e3cb
x162y133=f1ddc2
x163y133=f0d8be
x164y133=edd5b9
x165y133=eed5b7
x166y133=ecd5b6
x167y133=ebd3b7
x168y133=ead5b8
x169y133=ecd7bc
x170y133=efdabf
x171y133=f5ddc3
x172y133=f8e0c4
x173y133=f3dbbf
x174y133=f1dabb
x175y133=efd7bb
x176y133=efd7bb
x1y134=9ba3a6
x2y134=949c9f
x3y134=949c9f
x4y134=929a9d
x5y134=91999c
x6y134=90989b
x7y134=92979b
x8y134=92979b
x9y134=8e9397
x10y134=8b9094
x11y134=909599
x12y134=979ca0
x13y134=9ea3a7
x14y134=a4a9ad
x15y134=a7afb2
x16y134=abb3b6
x17y134=adb5b8
x18y134=adb5b8
x19y134=afb6bc
x20y134=abb2b8
x21y134=a8b1b6
x22y134=a8b1b6
x23y134=a8afb5
x24y134=a5acb2
x25y134=a4acaf
x26y134=a4acaf
x27y134=a9b1b4
x28y134=aab2b5
x29y134=abb2b8
x30y134=a7b0b5
x31y134=adb6bb
x32y134=b1babf
x33y134=b3bcc3
x34y134=b1bac1
x35y134=aeb7bc
x36y134=a8b1b6
x37y134=a9b2b7
x38y134=a6afb4
x39y134=adb6bb
x40y134=b7c0c5
x41y134=bac3ca
x42y134=b2bbc2
x43y134=acb5bc
x44y134=a8b1b8
x45y134=abb4bb
x46y134=b3bcc3
x47y134=bcc5ca
x48y134=bec7cc
x49y134=bcc7cd
x50y134=b4bfc5
x51y134=a7b1ba
x52y134=9fa9b2
x53y134=9ea8b1
x54y134=9da8ae
x55y134=a6afb8
x56y134=b4bec7
x57y134=b7c4cd
x58y134=b3c1cc
x59y134=b8c6d1
x60y134=bbc9d4
x61y134=b7c4cd
x62y134=a7b1ba
x63y134=9fa8b1
x64y134=989fa5
x65y134=93989c
x66y134=919699
x67y134=939b9d
x68y134=9da5a7
x69y134=9ea3a7
x70y134=999ea1
x71y134=9b9fa2
x72y134=9ba1a1
x73y134=9a9fa2
x74y134=959ea3
x75y134=9fadb6
x76y134=b0c3d2
x77y134=b3c9de
x78y134=b8d1e7
x79y134=b9d2e8
x80y134=b8d1e5
x81y134=bdd6ec
x82y134=bad3e7
x83y134=b7d0e4
x84y134=c0d9ed
x85y134=bfd8ee
x86y134=bfd8ee
x87y134=c0d8f0
x88y134=c2d8ef
x89y134=bdd2e7
x90y134=c0d2e6
x91y134=bccfe0
x92y134=bed0de
x93y134=b6c7cf
x94y134=acb7bd
x95y134=a1a6a9
x96y134=9c9c9c
x97y134=787773
x98y134=3e3d38
x99y134=2a2720
x100y134=28251c
x101y134=221f16
x102y134=231f14
x103y134=2c2419
x104y134=362a1e
x105y134=3c3022
x106y134=3b2f23
x107y134=3d3329
x108y134=3d342b
x109y134=382f28
x110y134=362d24
x111y134=51433a
x112y134=56453d
x113y134=45342a
x114y134=3f3128
x115y134=3e312b
x116y134=271e17
x117y134=221d17
x118y134=24211a
x119y134=2b271e
x120y134=312a22
x121y134=3b302a
x122y134=45372c
x123y134=675644
x124y134=96826a
x125y134=c5ae8f
x126y134=e0c7a8
x127y134=e7d2b5
x128y134=efdbc0
x129y134=f5dfc7
x130y134=f3ddc5
x131y134=ebd9c1
x132y134=e8d7bd
x133y134=e7d4b4
x134y134=d6bf9d
x135y134=c6ad85
x136y134=c9ad85
x137y134=d9c097
x138y134=ebd2aa
x139y134=f6dcb7
x140y134=fae0bd
x141y134=fce4c2
x142y134=fde6c6
x143y134=fce8cd
x144y134=fdeed7
x145y134=fff8e8
x146y134=fffef5
x147y134=fffffb
x148y134=ffffff
x149y134=ffffff
x150y134=ffffff
x151y134=ffffff
x152y134=ffffff
x153y134=fefefe
x154y134=fffffd
x155y134=fffffa
x156y134=fffff6
x157y134=fffff2
x158y134=fffae7
x159y134=fbf3e0
x160y134=fcedd8
x161y134=f9e7cf
x162y134=f5e1c8
x163y134=f1dcc1
x164y134=eed6ba
x165y134=eed5b7
x166y134=ecd3b5
x167y134=ecd4b8
x168y134=ebd3b7
x169y134=ead5ba
x170y134=edd8bd
x171y134=f0d8bc
x172y134=f1d9bd
x173y134=efd8b9
x174y134=eed7b8
x175y134=eed6ba
x176y134=eed6ba
x1y135=9aa2a5
x2y135=929a9d
x3y135=939b9e
x4y135=929a9d
x5y135=91999c
x6y135=91999c
x7y135=94999d
x8y135=91969a
x9y135=8e9397
x10y135=898e92
x11y135=8a8f93
x12y135=91969a
x13y135=929a9d
x14y135=99a1a4
x15y135=a0a8ab
x16y135=a1a9ac
x17y135=a1a8ae
x18y135=a2a9af
x19y135=a4adb2
x20y135=a1aaaf
x21y135=a4abb1
x22y135=a5acb2
x23y135=a5aeb3
x24y135=a8afb5
x25y135=a6aeb1
x26y135=a6aeb1
x27y135=aab1b7
x28y135=afb6bc
x29y135=b0b7bd
x30y135=afb8bd
x31y135=b6bfc6
x32y135=bdc8ce
x33y135=bec7ce
x34y135=b6bfc6
x35y135=b0b9c0
x36y135=acb5bc
x37y135=a9b2b9
x38y135=a9b2b9
x39y135=b2bbc2
x40y135=bec7ce
x41y135=bfc8cf
x42y135=b9c2c9
x43y135=b6bfc6
x44y135=acb5bc
x45y135=abb4b9
x46y135=b4bdc2
x47y135=bfc8cd
x48y135=c1cacf
x49y135=bbc6ca
x50y135=b5c0c4
x51y135=a9b2b9
x52y135=a2abb2
x53y135=9ba4ab
x54y135=9ba4a9
x55y135=a1a8b0
x56y135=a9b2b9
x57y135=b1bcc2
x58y135=b1bec6
x59y135=b1bfc8
x60y135=afbdc6
x61y135=a7b4bd
x62y135=a7b1ba
x63y135=aab3bc
x64y135=9ca3ab
x65y135=91989e
x66y135=8e9699
x67y135=8f9497
x68y135=999f9f
x69y135=989da0
x70y135=93989b
x71y135=9ba0a3
x72y135=9a9fa2
x73y135=9da3a3
x74y135=99a1a4
x75y135=9eabb3
x76y135=adbfcb
x77y135=b1c8da
x78y135=b7d0e6
x79y135=b6d1e6
x80y135=b0cbe0
x81y135=bbd5ec
x82y135=bad3e9
x83y135=bcd5eb
x84y135=bfd5ec
x85y135=bfd5ec
x86y135=bfd5ec
x87y135=c0d6ed
x88y135=c0d6ed
x89y135=c0d5ea
x90y135=bfd4e9
x91y135=c0d5e8
x92y135=bdd0e1
x93y135=b9cada
x94y135=b7c7d4
x95y135=b1bbc4
x96y135=a0a5a9
x97y135=9b9f9e
x98y135=9b9c97
x99y135=989890
x100y135=989489
x101y135=938c7c
x102y135=948774
x103y135=8e7e67
x104y135=7b6953
x105y135=7b6955
x106y135=695846
x107y135=423626
x108y135=332b1e
x109y135=362d24
x110y135=2c251d
x111y135=3c332a
x112y135=4a4037
x113y135=4b3e38
x114y135=433930
x115y135=2d241b
x116y135=211a10
x117y135=261f17
x118y135=2b241c
x119y135=2d2822
x120y135=322b25
x121y135=322924
x122y135=3d2f24
x123y135=7f6a55
x124y135=bba387
x125y135=d5be9e
x126y135=e7d0b0
x127y135=efdcbe
x128y135=f1ddc2
x129y135=f5dfc7
x130y135=efd9c1
x131y135=ebdac0
x132y135=e5d4b8
x133y135=ddc9a8
x134y135=cab48f
x135y135=c7ae86
x136y135=d0b48c
x137y135=e4cba3
x138y135=f2d8b3
x139y135=f9dfbc
x140y135=fbe1c0
x141y135=fce3c4
x142y135=fde6c7
x143y135=fde9ce
x144y135=fcf0da
x145y135=fef8ea
x146y135=fffff8
x147y135=fffffd
x148y135=ffffff
x149y135=ffffff
x150y135=ffffff
x151y135=ffffff
x152y135=ffffff
x153y135=ffffff
x154y135=ffffff
x155y135=fffffb
x156y135=fffff8
x157y135=fffff3
x158y135=fefbea
x159y135=fcf5e3
x160y135=fcefdc
x161y135=fbebd4
x162y135=f7e3ca
x163y135=f2ddc2
x164y135=eed9bc
x165y135=edd6b7
x166y135=ebd4b5
x167y135=ead2b6
x168y135=e9d1b5
x169y135=e6d1b4
x170y135=e8d3b6
x171y135=ead2b6
x172y135=ecd4b8
x173y135=eed5b7
x174y135=eed5b7
x175y135=edd5b9
x176y135=ecd4b8
x1y136=969ea1
x2y136=8e9699
x3y136=929a9d
x4y136=949c9f
x5y136=929a9d
x6y136=91999c
x7y136=969b9f
x8y136=91969a
x9y136=91969a
x10y136=8c9195
x11y136=8c9195
x12y136=8f9498
x13y136=878f92
x14y136=8e9699
x15y136=969ea1
x16y136=959da0
x17y136=969da3
x18y136=979ea4
x19y136=98a1a6
x20y136=959ea3
x21y136=989fa5
x22y136=9aa1a7
x23y136=a0a7ad
x24y136=aab1b7
x25y136=abb3b6
x26y136=adb5b8
x27y136=b1b8be
x28y136=b2bbc0
x29y136=b1b8be
x30y136=b3bcc1
x31y136=bbc6cc
x32y136=c3ced4
x33y136=c3ccd3
x34y136=c0c9d0
x35y136=bcc5cc
x36y136=b4bdc4
x37y136=a9b2b9
x38y136=abb4bb
x39y136=b4bdc4
x40y136=bec7ce
x41y136=bfc8cf
x42y136=b5bec5
x43y136=b3bcc3
x44y136=adb6bd
x45y136=aab3b8
x46y136=adb6bb
x47y136=b8c1c6
x48y136=bdc6cb
x49y136=b6c1c5
x50y136=adb8bc
x51y136=a7b0b7
x52y136=a1aaaf
x53y136=9da4aa
x54y136=959ca2
x55y136=959ca2
x56y136=989fa5
x57y136=a0a9ae
x58y136=abb6bc
x59y136=acb9c1
x60y136=abb8c0
x61y136=abb8c1
x62y136=afb9c2
x63y136=a7b0b7
x64y136=99a0a6
x65y136=8f969c
x66y136=8a9295
x67y136=8c9194
x68y136=929898
x69y136=969b9e
x70y136=9a9fa2
x71y136=989da0
x72y136=9ba0a3
x73y136=9b9fa0
x74y136=999ea2
x75y136=96a1a7
x76y136=a4b5bf
x77y136=b1c6d7
x78y136=b4cde1
x79y136=b4cde3
x80y136=b6d0e7
x81y136=b8d2e9
x82y136=b8d0e8
x83y136=bdd3ea
x84y136=bad0e7
x85y136=bdd3ea
x86y136=c4daf1
x87y136=c0d6ed
x88y136=bed4eb
x89y136=bed4eb
x90y136=bdd3ea
x91y136=bdd2e7
x92y136=bbd0e5
x93y136=bdd2e5
x94y136=bccddd
x95y136=bbc9d6
x96y136=b2bcc5
x97y136=a7afb1
x98y136=9a9e9d
x99y136=a2a39e
x100y136=aca9a0
x101y136=c2bbab
x102y136=d4c7b4
x103y136=dacab1
x104y136=d9c5ac
x105y136=d3bfa6
x106y136=bfad95
x107y136=958673
x108y136=554a38
x109y136=3a3122
x110y136=2e2418
x111y136=271d11
x112y136=35291d
x113y136=34261d
x114y136=312519
x115y136=32291a
x116y136=3b3221
x117y136=453828
x118y136=433528
x119y136=32261a
x120y136=32251c
x121y136=2c2014
x122y136=423222
x123y136=99836b
x124y136=cdb496
x125y136=e1caaa
x126y136=ebd7b6
x127y136=efdcbe
x128y136=f1ddc2
x129y136=f0dcc3
x130y136=ecd8bf
x131y136=e7d3b8
x132y136=e3d0b2
x133y136=d1ba98
x134y136=c8b08a
x135y136=ccb38b
x136y136=d6ba93
x137y136=e8cea9
x138y136=f3d9b6
x139y136=f8debb
x140y136=fbe3c1
x141y136=fce3c5
x142y136=fde8cb
x143y136=fdedd3
x144y136=fdf2dc
x145y136=fff9ed
x146y136=fffffa
x147y136=fffffd
x148y136=ffffff
x149y136=ffffff
x150y136=ffffff
x151y136=ffffff
x152y136=ffffff
x153y136=ffffff
x154y136=ffffff
x155y136=fffefa
x156y136=fffff8
x157y136=fffff3
x158y136=fffdee
x159y136=fff8e6
x160y136=fdf2de
x161y136=fbecd5
x162y136=f7e5cd
x163y136=f3dfc6
x164y136=f1dcc1
x165y136=eed6ba
x166y136=ecd5b6
x167y136=ead2b6
x168y136=e9d1b5
x169y136=e7d2b5
x170y136=e7d2b5
x171y136=e9d1b5
x172y136=ebd3b7
x173y136=ecd3b5
x174y136=ead1b3
x175y136=e9d1b5
x176y136=ebd3b7
x1y137=8f979a
x2y137=91999c
x3y137=91999c
x4y137=939b9e
x5y137=91999c
x6y137=929a9d
x7y137=90989b
x8y137=91999c
x9y137=90989b
x10y137=8e9699
x11y137=8c9497
x12y137=8a9295
x13y137=888f95
x14y137=899096
x15y137=8a9398
x16y137=8b9499
x17y137=8a939a
x18y137=8c959c
x19y137=8e959d
x20y137=8d949c
x21y137=8e979e
x22y137=8e959d
x23y137=989fa5
x24y137=9ea5ab
x25y137=a1a8ae
x26y137=acb3b9
x27y137=b0b7bd
x28y137=b1b8be
x29y137=b1bac1
x30y137=b0bbc1
x31y137=b8c3c9
x32y137=c2cdd3
x33y137=c3ccd3
x34y137=c2cbd2
x35y137=bdc6cb
x36y137=b3bcc1
x37y137=aab3ba
x38y137=acb5bc
x39y137=b5c0c6
x40y137=bbc6cc
x41y137=bbc4cb
x42y137=b5bec5
x43y137=b1bac1
x44y137=aab3ba
x45y137=a3acb1
x46y137=a1aaaf
x47y137=acb6b8
x48y137=afb9bb
x49y137=b0babc
x50y137=abb5b7
x51y137=a6adb3
x52y137=9ea5ab
x53y137=9ea3a9
x54y137=9a9fa3
x55y137=969b9f
x56y137=8c9195
x57y137=90989b
x58y137=9aa3a8
x59y137=abb6bc
x60y137=b2bdc3
x61y137=b0bac3
x62y137=a8b3b9
x63y137=9da6ad
x64y137=959ca2
x65y137=8d9298
x66y137=8d9296
x67y137=878c8f
x68y137=8d9295
x69y137=94999c
x70y137=999ea1
x71y137=969b9e
x72y137=999ea1
x73y137=989c9f
x74y137=9a9fa3
x75y137=95a0a6
x76y137=a0b1bb
x77y137=adc3d1
x78y137=b6d0e1
x79y137=b6cfe5
x80y137=b8d0e8
x81y137=b5cee4
x82y137=bad0e7
x83y137=b4cae1
x84y137=b6cce3
x85y137=bad3e7
x86y137=bbd4e8
x87y137=bcd5eb
x88y137=bdd6ec
x89y137=bdd5ed
x90y137=b8d0e8
x91y137=bad0e7
x92y137=bbd1e6
x93y137=bad1e3
x94y137=b9cedf
x95y137=bacbdb
x96y137=b7c5d2
x97y137=b2bbc2
x98y137=a3a8ab
x99y137=9d9f9e
x100y137=9c9d98
x101y137=a3a099
x102y137=b4aea2
x103y137=cfc6b5
x104y137=e1d5bf
x105y137=e8d6be
x106y137=e8d4bb
x107y137=e0d0b7
x108y137=ccbca5
x109y137=bbac95
x110y137=96866f
x111y137=72604a
x112y137=826e56
x113y137=8a7560
x114y137=89745f
x115y137=907e68
x116y137=9b8971
x117y137=9e8a6f
x118y137=9f8a6f
x119y137=7c664e
x120y137=6d5740
x121y137=7b654d
x122y137=988368
x123y137=cbb397
x124y137=e3cbaf
x125y137=ecd4b8
x126y137=f0d8bc
x127y137=efdabf
x128y137=eedac1
x129y137=ecd8bf
x130y137=e9d5ba
x131y137=e2cdb0
x132y137=d9c2a2
x133y137=c9af8a
x134y137=ccb38b
x135y137=d2b68f
x136y137=dfc39e
x137y137=f0d6b3
x138y137=f7ddbc
x139y137=f8e0be
x140y137=fae1c2
x141y137=fce7ca
x142y137=feedd3
x143y137=fdf1d9
x144y137=fff7e4
x145y137=fffcf1
x146y137=fffffa
x147y137=fffffd
x148y137=ffffff
x149y137=fffeff
x150y137=fffeff
x151y137=ffffff
x152y137=ffffff
x153y137=ffffff
x154y137=ffffff
x155y137=fffffb
x156y137=fffff8
x157y137=fffff5
x158y137=fffef1
x159y137=fffbeb
x160y137=fdf5e2
x161y137=f9edd7
x162y137=f7e7d0
x163y137=f5e1c8
x164y137=f1ddc2
x165y137=ecd7ba
x166y137=e8d3b6
x167y137=e6d1b4
x168y137=e8d3b6
x169y137=e7d2b5
x170y137=e7d2b5
x171y137=e9d1b5
x172y137=e8d0b4
x173y137=e8d0b4
x174y137=ebd3b7
x175y137=ebd3b9
x176y137=edd5bb
x1y138=929a9d
x2y138=939b9e
x3y138=939b9e
x4y138=91999c
x5y138=8f979a
x6y138=8e9699
x7y138=8e9699
x8y138=8f979a
x9y138=8e9699
x10y138=8c9497
x11y138=8a9295
x12y138=868e91
x13y138=878e94
x14y138=888f95
x15y138=8a9398
x16y138=899297
x17y138=889198
x18y138=889198
x19y138=878e96
x20y138=878e96
x21y138=8c959c
x22y138=8f969e
x23y138=959ca2
x24y138=969da3
x25y138=9aa1a7
x26y138=a4abb1
x27y138=a9b0b6
x28y138=acb3b9
x29y138=aeb7be
x30y138=aeb9bf
x31y138=b7c2c8
x32y138=c1ccd2
x33y138=c1cad1
x34y138=bdc6cd
x35y138=b8c1c6
x36y138=b0b9be
x37y138=a9b2b9
x38y138=a7b0b7
x39y138=aab5bb
x40y138=adb8be
x41y138=b0b9c0
x42y138=b5bec5
x43y138=b3bcc3
x44y138=aeb7be
x45y138=a5aeb3
x46y138=a0a9ae
x47y138=a0aaac
x48y138=a8b2b4
x49y138=abb5b7
x50y138=afb9bb
x51y138=abb2b8
x52y138=a2a9af
x53y138=a0a5a9
x54y138=9da2a6
x55y138=9b9fa2
x56y138=8c9194
x57y138=8c9195
x58y138=8b9396
x59y138=9da6ab
x60y138=a9b4ba
x61y138=abb6bc
x62y138=9fa8ad
x63y138=989fa5
x64y138=8e9699
x65y138=868b8f
x66y138=8d9296
x67y138=8e9397
x68y138=8c9194
x69y138=8f9497
x70y138=979c9f
x71y138=969b9e
x72y138=969b9e
x73y138=979c9f
x74y138=969ea1
x75y138=98a2ab
x76y138=a5b3be
x77y138=a8bbca
x78y138=b1c8da
x79y138=b5cee4
x80y138=b4cce4
x81y138=b7cde4
x82y138=b4cae1
x83y138=bbd1e8
x84y138=b9d2e8
x85y138=b7d0e4
x86y138=bcd5e9
x87y138=b7d0e6
x88y138=bcd5eb
x89y138=bcd4ec
x90y138=b9d1e9
x91y138=b8d1e7
x92y138=bad3e7
x93y138=b7d1e2
x94y138=b6cddf
x95y138=b6c8dc
x96y138=b5c6d8
x97y138=b6c4d1
x98y138=acb6bf
x99y138=a9aeb2
x100y138=9e9fa1
x101y138=9a9a9a
x102y138=9f9e99
x103y138=a6a498
x104y138=b9b3a3
x105y138=d3c8b6
x106y138=e7dbc5
x107y138=ecddc8
x108y138=ecdcc5
x109y138=ecdcc3
x110y138=e0cfb5
x111y138=dcc7ac
x112y138=dbc3a7
x113y138=d6bea4
x114y138=d0bba0
x115y138=d2bda2
x116y138=d2bda0
x117y138=d2bb9c
x118y138=d2b99b
x119y138=cab095
x120y138=c8ae93
x121y138=ccb596
x122y138=d9c1a5
x123y138=e6ceb2
x124y138=eed6bc
x125y138=eed9be
x126y138=f1dcc1
x127y138=f0dac2
x128y138=ebd7be
x129y138=e5d4ba
x130y138=e2ceb3
x131y138=dbc4a4
x132y138=c7af8b
x133y138=c8ac85
x134y138=d1b58d
x135y138=d4b893
x136y138=e5cba8
x137y138=f3d9b8
x138y138=f6debc
x139y138=f9e0c1
x140y138=fbe4c5
x141y138=fde9d0
x142y138=ffefd8
x143y138=fff4e0
x144y138=fffaea
x145y138=fffdf4
x146y138=fffffb
x147y138=fffffd
x148y138=ffffff
x149y138=fffeff
x150y138=fffeff
x151y138=ffffff
x152y138=ffffff
x153y138=ffffff
x154y138=ffffff
x155y138=fffffb
x156y138=fffff8
x157y138=fffff5
x158y138=fffef1
x159y138=fffcec
x160y138=fef5e4
x161y138=fcefdc
x162y138=f9ead5
x163y138=f5e3cb
x164y138=f1ddc4
x165y138=ecd8bd
x166y138=e9d4b7
x167y138=e7d2b5
x168y138=e7d2b5
x169y138=e5d0b3
x170y138=e5d0b3
x171y138=e7cfb3
x172y138=e7cfb3
x173y138=e7cfb3
x174y138=e9d1b5
x175y138=ead2b8
x176y138=ebd3b9
x1y139=949c9f
x2y139=949c9f
x3y139=949c9f
x4y139=90989b
x5y139=8f979a
x6y139=8d9598
x7y139=90989b
x8y139=91999c
x9y139=929a9d
x10y139=8e9699
x11y139=8d949a
x12y139=888f95
x13y139=8c9399
x14y139=8c9399
x15y139=8e979c
x16y139=8a9398
x17y139=899299
x18y139=8b949b
x19y139=889198
x20y139=879097
x21y139=8c939b
x22y139=8d949c
x23y139=9198a0
x24y139=9299a1
x25y139=959ca2
x26y139=99a0a6
x27y139=9da4aa
x28y139=a3acb1
x29y139=a8afb7
x30y139=a6afb6
x31y139=acb7bd
x32y139=b5c0c6
x33y139=b3bcc3
x34y139=afb8bf
x35y139=abb4b9
x36y139=a7b0b5
x37y139=a6afb4
x38y139=a4adb2
x39y139=a7b0b5
x40y139=abb4b9
x41y139=b1bac1
x42y139=b5bec5
x43y139=b7c0c7
x44y139=b4bdc4
x45y139=aab3b8
x46y139=a3acb1
x47y139=9fa7aa
x48y139=a5adb0
x49y139=a9b1b4
x50y139=abb3b6
x51y139=a7aeb4
x52y139=9fa6ac
x53y139=9da5a8
x54y139=9ca4a7
x55y139=9ea3a6
x56y139=979c9f
x57y139=8a8f92
x58y139=899194
x59y139=929c9e
x60y139=9ca5aa
x61y139=9aa3a8
x62y139=98a1a6
x63y139=959ca2
x64y139=8a8f93
x65y139=868b8f
x66y139=888d91
x67y139=8a8f93
x68y139=868b8f
x69y139=898e92
x70y139=93989b
x71y139=93989b
x72y139=959a9d
x73y139=979ca0
x74y139=949ba1
x75y139=99a3ad
x76y139=a3b1be
x77y139=acbfce
x78y139=afc6d8
x79y139=b8d1e5
x80y139=b7d0e6
x81y139=b1c7de
x82y139=b5cbe2
x83y139=b6cfe5
x84y139=b6d1e6
x85y139=b7d2e5
x86y139=b8d3e6
x87y139=b8d1e7
x88y139=b7d0e6
x89y139=bad3e9
x90y139=b7d0e6
x91y139=b3cee3
x92y139=b4cfe4
x93y139=b3cee1
x94y139=b3cce0
x95y139=b2c8dd
x96y139=b2c7dc
x97y139=b6c9da
x98y139=b3c3d2
x99y139=b2bcc6
x100y139=b2b6bf
x101y139=9fa3a6
x102y139=969897
x103y139=9a9c99
x104y139=9c9d98
x105y139=a2a39b
x106y139=b5b2a9
x107y139=d5cdc2
x108y139=e8dccc
x109y139=eddecb
x110y139=eddbc5
x111y139=eed8c0
x112y139=eed9be
x113y139=edd7bf
x114y139=e8d4bb
x115y139=e7d3b8
x116y139=e8d4b9
x117y139=e6d2b7
x118y139=e6d1b6
x119y139=e3cdb5
x120y139=e1cbb3
x121y139=e1cdb4
x122y139=e7d3ba
x123y139=ead4bc
x124y139=efdabf
x125y139=ead6bb
x126y139=e9d8bc
x127y139=e8d7bd
x128y139=e4d3b9
x129y139=e0cfb5
x130y139=dcc9ab
x131y139=c8b08e
x132y139=bfa37c
x133y139=ccb089
x134y139=d6ba92
x135y139=d5bb96
x136y139=e8d0ac
x137y139=f3dbb9
x138y139=f5debe
x139y139=fae3c4
x140y139=fde9ce
x141y139=fff0d7
x142y139=fff2df
x143y139=fff9e7
x144y139=fffef2
x145y139=fffff8
x146y139=fffffb
x147y139=fffffd
x148y139=ffffff
x149y139=fffffd
x150y139=fffeff
x151y139=ffffff
x152y139=ffffff
x153y139=feffff
x154y139=fffffd
x155y139=fffffb
x156y139=fffff8
x157y139=fffff5
x158y139=fffef2
x159y139=fffdee
x160y139=fff8e6
x161y139=fdf2e0
x162y139=fcedda
x163y139=f7e7d0
x164y139=f2e0c8
x165y139=eedabf
x166y139=ead6bb
x167y139=e7d3b8
x168y139=e5d1b6
x169y139=e4cfb4
x170y139=e5d0b5
x171y139=e5d0b3
x172y139=e5d0b3
x173y139=e6ceb2
x174y139=e8d0b4
x175y139=e6d1b6
x176y139=e8d3b8
x1y140=969ea1
x2y140=959da0
x3y140=969ea1
x4y140=939b9e
x5y140=929a9d
x6y140=91999c
x7y140=979fa2
x8y140=99a1a4
x9y140=9ba3a6
x10y140=979fa2
x11y140=949ba1
x12y140=91989e
x13y140=969da3
x14y140=969da3
x15y140=969fa4
x16y140=8f989d
x17y140=8f989f
x18y140=8f989f
x19y140=8b949b
x20y140=899299
x21y140=8b949b
x22y140=8b949b
x23y140=8c959c
x24y140=8f969e
x25y140=8d949a
x26y140=8f969c
x27y140=90979d
x28y140=969fa4
x29y140=99a0a8
x30y140=97a0a7
x31y140=9ca5ac
x32y140=a5b0b6
x33y140=a7b0b7
x34y140=a5aeb5
x35y140=a2abb0
x36y140=a3acb1
x37y140=a4adb2
x38y140=a2abb0
x39y140=a5aeb3
x40y140=acb5ba
x41y140=b1bac1
x42y140=b5bec5
x43y140=bac3ca
x44y140=b6bfc6
x45y140=aeb7bc
x46y140=a5aeb3
x47y140=a0a8ab
x48y140=9ea6a9
x49y140=9fa7aa
x50y140=9da5a8
x51y140=a0a7ad
x52y140=a0a7ad
x53y140=a2aaad
x54y140=a1a9ac
x55y140=9da2a5
x56y140=9a9fa2
x57y140=999ea1
x58y140=8d9295
x59y140=8a9295
x60y140=8a9496
x61y140=899395
x62y140=8d9598
x63y140=909599
x64y140=888d90
x65y140=878c8f
x66y140=858a8d
x67y140=888d91
x68y140=878c92
x69y140=878c90
x70y140=8c9195
x71y140=8e9396
x72y140=90989a
x73y140=91989e
x74y140=969fa6
x75y140=95a2ab
x76y140=9fafbc
x77y140=a9bccb
x78y140=b1c6d7
x79y140=b6cce1
x80y140=b3cce2
x81y140=b5cee4
x82y140=b3cce2
x83y140=b2cbe1
x84y140=b3cee3
x85y140=b5d0e3
x86y140=b3cee1
x87y140=b6cfe5
x88y140=b6cfe5
x89y140=b5cee4
x90y140=b6cfe5
x91y140=b7d0e6
x92y140=b0cbe0
x93y140=aec9de
x94y140=aec9de
x95y140=afc8de
x96y140=aec7dd
x97y140=b5cee2
x98y140=b9cee1
x99y140=b2c2d1
x100y140=b1bbc7
x101y140=aab3ba
x102y140=9ca4a7
x103y140=94999c
x104y140=939798
x105y140=969a99
x106y140=9d9f9c
x107y140=aaa9a4
x108y140=bab6ad
x109y140=d2cabf
x110y140=e5d9c9
x111y140=eadbc6
x112y140=ebd9c3
x113y140=eedac2
x114y140=edd9c0
x115y140=ebdabe
x116y140=e9d8bc
x117y140=e8d4bb
x118y140=ead6bd
x119y140=e7d3bb
x120y140=ead6be
x121y140=e9d5bd
x122y140=ead6be
x123y140=e9d5bc
x124y140=e8d4bb
x125y140=e5d4b8
x126y140=e6d5b9
x127y140=e3d2b8
x128y140=ddccb2
x129y140=d9c8ac
x130y140=ceb99a
x131y140=bea481
x132y140=c2a67f
x133y140=ceb189
x134y140=d4b891
x135y140=d8c09a
x136y140=e8d2ad
x137y140=f0d9b9
x138y140=f2ddc0
x139y140=f9e5ca
x140y140=feecd4
x141y140=fff3dd
x142y140=fff7e4
x143y140=fffbef
x144y140=fffef5
x145y140=fffffa
x146y140=fffffd
x147y140=ffffff
x148y140=ffffff
x149y140=fffffd
x150y140=fffffd
x151y140=ffffff
x152y140=ffffff
x153y140=feffff
x154y140=fefffd
x155y140=fffffb
x156y140=fffff8
x157y140=fffff7
x158y140=fffef2
x159y140=fffdee
x160y140=fff8e8
x161y140=fef2e2
x162y140=fbeedb
x163y140=f9ead5
x164y140=f6e6cd
x165y140=f1ddc4
x166y140=ecd8bd
x167y140=e8d4b9
x168y140=e5d1b6
x169y140=e5d0b5
x170y140=e5d0b5
x171y140=e5d0b3
x172y140=e4cfb2
x173y140=e6ceb2
x174y140=e7cfb3
x175y140=e6d1b6
x176y140=e7d2b7
x1y141=989da1
x2y141=979ca0
x3y141=999ea2
x4y141=989da1
x5y141=959da0
x6y141=939b9e
x7y141=99a1a4
x8y141=9ca4a7
x9y141=9ea3a7
x10y141=9ca1a5
x11y141=979ea4
x12y141=979ea4
x13y141=9ba2a8
x14y141=9ca3a9
x15y141=99a2a7
x16y141=949da2
x17y141=949da2
x18y141=949da2
x19y141=8e979c
x20y141=8b9499
x21y141=8b949b
x22y141=899299
x23y141=889198
x24y141=8b929a
x25y141=8a9197
x26y141=8c9399
x27y141=8a9197
x28y141=8b9298
x29y141=858e93
x30y141=868f94
x31y141=899299
x32y141=9099a0
x33y141=98a1a6
x34y141=9ca5aa
x35y141=9ca5aa
x36y141=9ea7ac
x37y141=9ca3a9
x38y141=989fa5
x39y141=99a0a6
x40y141=a0a7ad
x41y141=a5acb2
x42y141=b0b7bd
x43y141=b1b8be
x44y141=abb2b8
x45y141=aeb5bb
x46y141=a9b0b6
x47y141=a4abb1
x48y141=a2a9af
x49y141=a1a8ae
x50y141=a1a8ae
x51y141=a6afb4
x52y141=a8b1b6
x53y141=acb6b8
x54y141=abb5b7
x55y141=a4acae
x56y141=9ea6a8
x57y141=9ca1a4
x58y141=959a9d
x59y141=90989b
x60y141=868e91
x61y141=81898c
x62y141=889092
x63y141=898e91
x64y141=848a8a
x65y141=848a8a
x66y141=868b8e
x67y141=888d91
x68y141=878c90
x69y141=888d91
x70y141=909599
x71y141=91999c
x72y141=91999c
x73y141=929ba2
x74y141=949ea7
x75y141=98a6b1
x76y141=a8b8c5
x77y141=aabdcc
x78y141=acc1d2
x79y141=b5cbe0
x80y141=b8d1e5
x81y141=b0cbe0
x82y141=acc7dc
x83y141=aec7dd
x84y141=b0c9df
x85y141=b2cbe1
x86y141=b6cfe5
x87y141=bad3e7
x88y141=b4cfe2
x89y141=b2cde0
x90y141=b4cde1
x91y141=b9d2e8
x92y141=b2cae2
x93y141=b2cae2
x94y141=b2cce3
x95y141=b2cde2
x96y141=aec9dc
x97y141=b1ccdf
x98y141=b0cadb
x99y141=b1c6d7
x100y141=b0c2d0
x101y141=afbfcc
x102y141=abb8c0
x103y141=a0a8ab
x104y141=969a9b
x105y141=949897
x106y141=959998
x107y141=979b9c
x108y141=9b9fa0
x109y141=a3a5a4
x110y141=b2b3ad
x111y141=cec7bd
x112y141=dfd3c5
x113y141=e9d8c6
x114y141=ebd7bf
x115y141=ead6bb
x116y141=e8d5b7
x117y141=ead9bd
x118y141=e9d5bc
x119y141=e8d4bb
x120y141=ebd5bd
x121y141=ead4bc
x122y141=ead6bd
x123y141=e6d5bb
x124y141=e4d3b9
x125y141=e5d5bc
x126y141=e2d0b8
x127y141=ddcbb3
x128y141=dac6ad
x129y141=d4bfa2
x130y141=c0a989
x131y141=c2a681
x132y141=c7a983
x133y141=d0b38b
x134y141=d5b992
x135y141=ddc59f
x136y141=e6d2af
x137y141=efdcbc
x138y141=f3e2c6
x139y141=faead1
x140y141=feefda
x141y141=fdf5e0
x142y141=fff9e9
x143y141=fffef5
x144y141=fffffa
x145y141=fffffd
x146y141=ffffff
x147y141=ffffff
x148y141=ffffff
x149y141=fffffd
x150y141=fffffd
x151y141=ffffff
x152y141=feffff
x153y141=fdfffe
x154y141=fefffd
x155y141=fffffb
x156y141=fffff8
x157y141=fffff8
x158y141=fffff3
x159y141=fffdee
x160y141=fff9e9
x161y141=fdf4e3
x162y141=fdf0df
x163y141=fbecd9
x164y141=f9e9d2
x165y141=f4e0c8
x166y141=eedac1
x167y141=e8d4bb
x168y141=e6d2b9
x169y141=e4d0b5
x170y141=e3cfb4
x171y141=e5d0b3
x172y141=e4cfb2
x173y141=e6ceb2
x174y141=e6ceb2
x175y141=e5d0b3
x176y141=e6d1b4
x1y142=979ca0
x2y142=94999d
x3y142=94999d
x4y142=969b9f
x5y142=959da0
x6y142=949c9f
x7y142=969ea1
x8y142=949c9f
x9y142=969b9f
x10y142=989da1
x11y142=969da3
x12y142=9aa1a7
x13y142=9ca3a9
x14y142=9ba2a8
x15y142=98a1a6
x16y142=969fa4
x17y142=949da2
x18y142=969fa4
x19y142=949da2
x20y142=90999e
x21y142=8b969c
x22y142=879097
x23y142=868f96
x24y142=899098
x25y142=8a9398
x26y142=8a9398
x27y142=899096
x28y142=899096
x29y142=828b90
x30y142=838c91
x31y142=858e95
x32y142=879097
x33y142=8d969b
x34y142=90999e
x35y142=8f989d
x36y142=949da2
x37y142=949ba1
x38y142=92999f
x39y142=8d949a
x40y142=8c9399
x41y142=8f969c
x42y142=99a0a6
x43y142=9ba2a8
x44y142=9ea5ab
x45y142=a9b0b6
x46y142=a7aeb4
x47y142=a4abb1
x48y142=a4abb1
x49y142=a4abb1
x50y142=a9b0b6
x51y142=acb5ba
x52y142=b2bbc0
x53y142=b3bcc1
x54y142=aeb8ba
x55y142=a7b1b3
x56y142=9fa7a9
x57y142=9a9fa2
x58y142=9a9fa2
x59y142=98a0a3
x60y142=91999c
x61y142=868e90
x62y142=889092
x63y142=858b8b
x64y142=888e8e
x65y142=8b9191
x66y142=888d90
x67y142=868b8e
x68y142=8a8f93
x69y142=8a8f93
x70y142=8d9296
x71y142=90989b
x72y142=949da2
x73y142=9ba5ae
x74y142=9daab3
x75y142=a4b5bf
x76y142=a7b9c5
x77y142=a7bac9
x78y142=a6bbcc
x79y142=b2c9db
x80y142=b2cde0
x81y142=abc6db
x82y142=a8c3d8
x83y142=b1cae0
x84y142=b3cce2
x85y142=afc5dc
x86y142=b2c8df
x87y142=afc8dc
x88y142=b5d0e3
x89y142=b3cee1
x90y142=b1cae0
x91y142=b4cce4
x92y142=b3c9e1
x93y142=b1c9e1
x94y142=b4cce4
x95y142=afcadf
x96y142=acc7da
x97y142=b0cbde
x98y142=b1cade
x99y142=acc6d7
x100y142=adc4d4
x101y142=b1c4d3
x102y142=acbcc9
x103y142=adb8be
x104y142=a4acaf
x105y142=999d9e
x106y142=939798
x107y142=92979a
x108y142=8f979a
x109y142=949c9f
x110y142=9ca1a4
x111y142=a8aaa7
x112y142=b9b6af
x113y142=cbc3b8
x114y142=ddd1c1
x115y142=e3d7c1
x116y142=e4d6bc
x117y142=e5d5bc
x118y142=e6d4bc
x119y142=e9d5bd
x120y142=e7d3bb
x121y142=e7d3bb
x122y142=e6d2ba
x123y142=e2d1b7
x124y142=e1d1b7
x125y142=deceb5
x126y142=d7c5ad
x127y142=d9c5ac
x128y142=d1bc9f
x129y142=c5ae8e
x130y142=c6ac89
x131y142=ccb08b
x132y142=d0b28c
x133y142=d2b48e
x134y142=d0b78f
x135y142=dcc6a1
x136y142=e9d6b5
x137y142=efdec2
x138y142=f6e6cd
x139y142=feefda
x140y142=fff4e0
x141y142=fff8e6
x142y142=fffcf0
x143y142=fffff8
x144y142=fffffd
x145y142=ffffff
x146y142=fefefe
x147y142=ffffff
x148y142=ffffff
x149y142=fffffd
x150y142=fffffd
x151y142=ffffff
x152y142=feffff
x153y142=fdfffe
x154y142=fefffd
x155y142=fffffb
x156y142=fffff8
x157y142=fffff8
x158y142=fffff3
x159y142=fffdee
x160y142=fff9e9
x161y142=fff6e5
x162y142=fef1e0
x163y142=fbecd9
x164y142=f9e9d2
x165y142=f5e3cb
x166y142=f0dcc3
x167y142=e9d5bc
x168y142=e6d2b9
x169y142=e4d0b5
x170y142=e3cfb4
x171y142=e5d0b3
x172y142=e4cfb2
x173y142=e6ceb2
x174y142=e6ceb2
x175y142=e5d0b3
x176y142=e5d0b3
x1y143=95989d
x2y143=92959a
x3y143=909599
x4y143=93989c
x5y143=959a9e
x6y143=92979b
x7y143=909599
x8y143=898e92
x9y143=868b8f
x10y143=8b9094
x11y143=8c9197
x12y143=91969c
x13y143=91989e
x14y143=8e959b
x15y143=8e959b
x16y143=91989e
x17y143=959ea3
x18y143=97a0a5
x19y143=97a0a5
x20y143=969fa4
x21y143=969fa4
x22y143=959ea3
x23y143=949da2
x24y143=949da2
x25y143=969da3
x26y143=939aa0
x27y143=90979d
x28y143=8c9399
x29y143=868d93
x30y143=858c92
x31y143=848d92
x32y143=828b90
x33y143=8a9197
x34y143=8e959b
x35y143=90979d
x36y143=969da3
x37y143=929a9d
x38y143=90989b
x39y143=8e9699
x40y143=8c9497
x41y143=8c9399
x42y143=8b9298
x43y143=8d949a
x44y143=939aa0
x45y143=9ca3a9
x46y143=9fa6ac
x47y143=a1a8ae
x48y143=a2a9af
x49y143=a5acb2
x50y143=aab1b7
x51y143=abb4bb
x52y143=afbabe
x53y143=acb7bb
x54y143=a6b1b3
x55y143=a5afb1
x56y143=a0aaac
x57y143=979fa1
x58y143=969ea0
x59y143=9da2a5
x60y143=9a9fa2
x61y143=969ea0
x62y143=90989a
x63y143=8c9292
x64y143=8b9191
x65y143=8a8f92
x66y143=8c9194
x67y143=8a9294
x68y143=899193
x69y143=8c9194
x70y143=8f9498
x71y143=959ca2
x72y143=9aa3aa
x73y143=a2afb8
x74y143=a6b4bf
x75y143=a7b7c4
x76y143=a8bac6
x77y143=a6b9c8
x78y143=a7bccd
x79y143=aac4d5
x80y143=afcadd
x81y143=a9c4d9
x82y143=acc7dc
x83y143=acc5db
x84y143=afc5dc
x85y143=b0c5da
x86y143=b1c7dc
x87y143=b4cae1
x88y143=b2cbe1
x89y143=aec6de
x90y143=abc3dd
x91y143=b0c8e0
x92y143=afc7df
x93y143=b4cae1
x94y143=b5cee4
x95y143=b3cce2
x96y143=b5cee4
x97y143=afc8dc
x98y143=aac3d7
x99y143=aac4d5
x100y143=aec5d5
x101y143=b3c8d9
x102y143=aec1cf
x103y143=aebcc7
x104y143=aeb8c1
x105y143=a7acb0
x106y143=999da0
x107y143=8f9497
x108y143=8c9496
x109y143=8f979a
x110y143=939b9e
x111y143=98a0a3
x112y143=9aa2a4
x113y143=a5aaad
x114y143=b4b8b7
x115y143=c3c3bb
x116y143=d4cec0
x117y143=decfbc
x118y143=e0ceb8
x119y143=dfcdb7
x120y143=e0ceb8
x121y143=dfcdb9
x122y143=deccb6
x123y143=dbc9b1
x124y143=d9c9af
x125y143=d5c6a9
x126y143=d2c1a5
x127y143=d2ba9e
x128y143=c3aa8b
x129y143=c4aa87
x130y143=d2b691
x131y143=d2b490
x132y143=d6b894
x133y143=d5b992
x134y143=d1b792
x135y143=dbc4a2
x136y143=e7d7b6
x137y143=f0e0c6
x138y143=f6ead4
x139y143=fdf2de
x140y143=fff8e5
x141y143=fefbea
x142y143=fffff3
x143y143=fffffa
x144y143=fefefc
x145y143=ffffff
x146y143=ffffff
x147y143=ffffff
x148y143=ffffff
x149y143=fffffd
x150y143=fffffd
x151y143=ffffff
x152y143=feffff
x153y143=feffff
x154y143=fefffd
x155y143=fffffb
x156y143=fffff8
x157y143=fffff8
x158y143=fffff3
x159y143=fffcf0
x160y143=fffaea
x161y143=fef5e4
x162y143=fef1e0
x163y143=fbecd9
x164y143=f8e8d1
x165y143=f7e5cd
x166y143=f1ddc4
x167y143=ead6bd
x168y143=e7d3ba
x169y143=e6d1b6
x170y143=e4cfb4
x171y143=e4cfb2
x172y143=e3ceb1
x173y143=e6cfb0
x174y143=e6cfb0
x175y143=e5d0b3
x176y143=e5d0b3
x1y144=8e9196
x2y144=8f9297
x3y144=909599
x4y144=8f9498
x5y144=8e9397
x6y144=888d91
x7y144=878c90
x8y144=7f8488
x9y144=7f8488
x10y144=82878b
x11y144=81868c
x12y144=858a90
x13y144=868d93
x14y144=848b91
x15y144=868d93
x16y144=8d949a
x17y144=8c959a
x18y144=8f989d
x19y144=929ba0
x20y144=969fa4
x21y144=9da6ab
x22y144=a1aaaf
x23y144=a2abb0
x24y144=a2abb0
x25y144=a4abb1
x26y144=a2a9af
x27y144=a0a7ad
x28y144=959ca2
x29y144=8e959b
x30y144=8c9399
x31y144=8d969b
x32y144=899297
x33y144=8b9298
x34y144=8d949a
x35y144=90979d
x36y144=979ea4
x37y144=969ea1
x38y144=959da0
x39y144=959da0
x40y144=91999c
x41y144=8f969c
x42y144=8d949a
x43y144=939aa0
x44y144=959ca2
x45y144=99a0a6
x46y144=9ea5ab
x47y144=a3aab0
x48y144=a3aab0
x49y144=a5acb2
x50y144=a6afb4
x51y144=a8b1b8
x52y144=a6b1b7
x53y144=a0aeb1
x54y144=9fadb0
x55y144=a4aeb0
x56y144=a2acae
x57y144=9fa7a9
x58y144=9aa2a4
x59y144=999ea1
x60y144=969b9e
x61y144=949c9e
x62y144=959d9f
x63y144=989e9e
x64y144=999f9f
x65y144=979c9f
x66y144=94999c
x67y144=909998
x68y144=909998
x69y144=959a9d
x70y144=959a9e
x71y144=9ba2a8
x72y144=a4adb6
x73y144=a7b4bd
x74y144=a7b8c2
x75y144=a8b8c5
x76y144=a7b9c5
x77y144=a6b9c8
x78y144=a6bbcc
x79y144=a4becf
x80y144=a7c2d5
x81y144=aac5da
x82y144=a8c3d8
x83y144=b1c7de
x84y144=aec4db
x85y144=aec3d8
x86y144=aec3d8
x87y144=b1c7de
x88y144=aec4dc
x89y144=acc4de
x90y144=aac2dc
x91y144=afc7e1
x92y144=abc4da
x93y144=b3c9e0
x94y144=b4cadf
x95y144=afc8de
x96y144=b1cae0
x97y144=b1cade
x98y144=acc5d9
x99y144=b0cadb
x100y144=b2ccdd
x101y144=b3c8d9
x102y144=aec1d0
x103y144=aec0ce
x104y144=b2bfc8
x105y144=abb2ba
x106y144=a8acaf
x107y144=9da2a5
x108y144=8e9494
x109y144=889093
x110y144=8c9698
x111y144=919aa1
x112y144=919ea4
x113y144=94a1aa
x114y144=9ca7ad
x115y144=acb2b0
x116y144=b8b5ac
x117y144=ccbfae
x118y144=d8c6b0
x119y144=dac9b5
x120y144=d6c5b1
x121y144=d6c5b3
x122y144=d5c4b0
x123y144=d3c1ab
x124y144=d1c1a7
x125y144=cdbea1
x126y144=c4b493
x127y144=bfa889
x128y144=c6ac8b
x129y144=d1b58e
x130y144=d4b891
x131y144=dbbd99
x132y144=dabc98
x133y144=d5b994
x134y144=d1b792
x135y144=ddc9a6
x136y144=ebdabc
x137y144=f4e6cc
x138y144=f9eed8
x139y144=fdf5e2
x140y144=fffbe8
x141y144=fffdee
x142y144=fffff4
x143y144=fffffb
x144y144=fffffd
x145y144=ffffff
x146y144=ffffff
x147y144=ffffff
x148y144=ffffff
x149y144=fffefc
x150y144=fffffd
x151y144=ffffff
x152y144=feffff
x153y144=feffff
x154y144=fefffd
x155y144=fffffb
x156y144=fffff8
x157y144=fffff8
x158y144=fffff3
x159y144=fffdf1
x160y144=fffbeb
x161y144=fdf4e5
x162y144=fdf2e0
x163y144=fdeedb
x164y144=f8e8d1
x165y144=f9e7cf
x166y144=f2dec5
x167y144=edd9c0
x168y144=e9d5bc
x169y144=e7d2b7
x170y144=e4cfb4
x171y144=e3ceb1
x172y144=e2cdb0
x173y144=e5ceaf
x174y144=e6cfb0
x175y144=e4cfb2
x176y144=e5d0b3
